LAMMPS data file

434 atoms
4 atom types
361 bonds
4 bond types

0 18.399669 xlo xhi
0 18.399669 ylo yhi
0 18.399669 zlo zhi

Masses

1 18.9984
2 1.0079
3 12.0107
4 14.0067

Bond Coeffs

1 0 0.9765
2 0 1.1025
3 0 1.4525
4 0 1.1655

Atoms

1 1 1 8.20123683581018 2.455673397207267 0.148624141510204 0 0 1
2 1 2 8.550286924190686 1.6327365855471843 0.42963307645120097 0 0 1
3 2 3 1.2549422008833475 10.104172489481336 3.7119497974656808 1 1 1
4 2 2 0.9723858042513729 9.307599699951695 3.034797373603919 1 1 1
5 2 2 1.8130884421673392 9.911375072765827 4.666203883122896 1 1 1
6 2 2 1.9253326961354438 10.746050401853978 3.096983013764366 1 1 1
7 2 3 0.19007162074019365 10.935544895895653 4.036618073663924 1 1 1
8 2 4 17.627456886422017 11.472550952684353 4.493925970343781 0 1 1
9 3 3 15.204109942681422 9.155148642402379 2.4697541441146083 0 0 1
10 3 2 16.14020491889812 9.786421704696435 2.2236901832158362 0 0 1
11 3 2 14.328388112752062 9.841579283762696 2.4425818187397574 0 0 1
12 3 2 15.158582618738556 8.334643853386929 1.7432639552088802 0 0 1
13 3 3 15.141894313498796 8.560301117418843 3.761388316912857 0 0 1
14 3 4 14.965880792650967 7.831517114380703 4.675278939661156 0 0 1
15 4 3 15.10342268455182 8.894835708785642 16.869034511148286 -2 0 1
16 4 2 15.271445359830995 8.873283257725449 17.967622871772303 -2 0 1
17 4 2 14.039889146408472 8.719605741509502 16.644923324561955 -2 0 1
18 4 2 15.3169950367725 9.95805415896883 16.468895441313727 -2 0 1
19 4 3 16.084530223848876 8.031764686365008 16.231548191775122 -2 0 1
20 4 4 16.84098327301039 7.389016925667381 15.656860737528152 -2 0 1
21 5 3 1.9755640454608387 8.616307294376625 9.580684104742312 -1 1 0
22 5 2 2.4872672740232162 8.230322839690356 10.476929524693393 -1 1 0
23 5 2 1.9609068561133727 7.858964833500709 8.752390547353242 -1 1 0
24 5 2 0.8408901614412672 8.632535524725641 9.643290040243356 -1 1 0
25 5 3 2.4556584732968405 9.851382285948915 9.046584808620738 -1 1 0
26 5 4 2.8947203222597775 10.85664288671824 8.59954345039527 -1 1 0
27 6 3 14.502606723671693 14.004320189013075 0.3168674442811082 0 2 1
28 6 2 15.025719407044308 14.16277812333545 1.2165537356831502 0 2 1
29 6 2 13.65616556666549 14.675202500634118 0.20730046223688411 0 2 1
30 6 2 15.128774180808811 14.137377826866429 17.852543023817027 0 2 0
31 6 3 13.999012731861123 12.63379615921788 0.3542072420101946 0 2 1
32 6 4 13.437946739406371 11.626149910266308 0.46455982453163475 0 2 1
33 7 3 4.325751053283509 12.46390405339036 12.358889655990135 0 0 0
34 7 2 4.390154858979009 11.634924616691132 13.136680157679484 0 0 0
35 7 2 4.006683891459315 12.070847417437943 11.35803740076358 0 0 0
36 7 2 3.6642035076831165 13.257401257643702 12.733123437371768 0 0 0
37 7 3 5.635154222736751 13.07512756361339 12.199478492017438 0 0 0
38 7 4 6.703320062462148 13.545623532921262 12.126707120534075 0 0 0
39 8 3 6.7297686117594395 2.4343454758216017 11.19020516182246 0 0 1
40 8 2 5.670863369555543 2.56524213521559 10.946542178066997 0 0 1
41 8 2 6.841671731655945 2.4519190174726506 12.370716613945115 0 0 1
42 8 2 7.1056298694705395 1.4428401896124579 10.937908391538397 0 0 1
43 8 3 7.550147547469418 3.4616210116581643 10.592568539854662 0 0 1
44 8 4 8.211758963511036 4.25383559269335 10.044198844014831 0 0 1
45 9 3 7.009033549781552 18.095411209853072 16.446753628934992 -1 -1 1
46 9 2 7.341100448564752 0.13206931800633448 17.443800138542052 -1 0 1
47 9 2 5.903777458122941 18.020136716530633 16.393366936912845 -1 -1 1
48 9 2 7.15165023819033 0.4094760462858738 15.544821706780997 -1 0 1
49 9 3 7.725124581093683 16.930146131644698 15.976800172575203 -1 -1 1
50 9 4 8.361585021703442 16.007309645874848 15.63893545246159 -1 -1 1
51 10 3 2.480939314639345 17.377234184751032 17.010358740015224 1 0 0
52 10 2 2.8133157569605003 16.867877037767727 16.086747307272393 1 0 0
53 10 2 3.384740408697991 17.951427178871786 17.25283258286408 1 0 0
54 10 2 1.6344241607371683 18.0065084669531 16.628416970016534 1 0 0
55 10 3 2.0359532722941376 16.453884930829073 18.043022162796557 1 0 0
56 10 4 1.6712004827521922 15.690786067273685 0.45961000344567077 1 0 1
57 11 3 0.6898541625003651 11.879746408368145 11.448108526873375 1 0 0
58 11 2 1.2295451139113631 12.716977767460978 10.970015028464031 1 0 0
59 11 2 0.6515847172749415 11.055468492588274 10.76158614046689 1 0 0
60 11 2 1.2788428754725647 11.517640280775483 12.387935159294543 1 0 0
61 11 3 17.729627741945997 12.328566887186524 11.567115951160867 0 0 0
62 11 4 16.63762346201059 12.682694661413144 11.780155453704259 0 0 0
63 12 3 15.907869980622161 17.118766858875738 8.65656075933665 -1 -1 0
64 12 2 14.997944201140903 16.814425457457414 8.143859175698744 -1 -1 0
65 12 2 16.786122246325746 16.466443056332288 8.328481975786461 -1 -1 0
66 12 2 16.24870704598627 18.10744458045933 8.280637047448174 -1 -1 0
67 12 3 15.87779613758281 17.282941749511703 10.10216545396653 -1 -1 0
68 12 4 15.872323148196646 17.54925221839824 11.249412513273752 -1 -1 0
69 13 3 15.74266238420832 17.756214091819125 18.262744183596734 0 -1 0
70 13 2 14.662758760138471 17.737889410961376 18.126641655575735 0 -1 0
71 13 2 16.262909993241102 0.25439407723814955 17.98575166738219 0 0 0
72 13 2 15.87806787750636 17.4430063338009 0.89996331475504 0 -1 1
73 13 3 16.205823474685594 16.638542787512968 17.427079952560707 0 -1 0
74 13 4 16.408537462400826 15.837652835398478 16.655648303206583 0 -1 0
75 14 3 13.824743624778604 4.198257336610332 6.320984105572855 -1 0 0
76 14 2 13.616257545464737 4.6119179035254145 5.345464558807568 -1 0 0
77 14 2 13.439701501602098 4.804566104937097 7.17465286236234 -1 0 0
78 14 2 13.285080831898632 3.2856059341808392 6.469230197153189 -1 0 0
79 14 3 15.271238438716013 4.03121696280326 6.578267948340492 -1 0 0
80 14 4 16.41593600882482 3.8831567290833036 6.676677259239867 -1 0 0
81 15 3 11.085096901553293 9.644916767824155 1.8294640009434138 0 1 1
82 15 2 12.04326268250179 10.090742239669613 1.5336357348477607 0 1 1
83 15 2 11.318384522353126 8.670931680974055 2.3241771055715725 0 1 1
84 15 2 10.46266388014875 10.356738557382565 2.366968308627948 0 1 1
85 15 3 10.304004948879944 9.184312437224305 0.6119370176448222 0 1 1
86 15 4 9.674543438408309 8.707913454980202 18.17097543222262 0 1 0
87 16 3 7.609197385989085 7.545648125956178 15.516419943860168 0 0 1
88 16 2 7.872508442095257 7.7286611233714035 16.537255657585177 0 0 1
89 16 2 8.004475841110901 8.403103575636893 14.993031098583101 0 0 1
90 16 2 8.072865039004261 6.582052185686995 15.281875258465499 0 0 1
91 16 3 6.142826592975361 7.616715616328972 15.408830594367338 0 0 1
92 16 4 4.983451899101856 7.698644161584739 15.495472363419362 0 0 1
93 17 3 0.8300136109962238 2.5559166373438504 1.4993185627026115 -1 1 2
94 17 2 0.45429952440520616 1.6596576773813243 2.0097829106604315 -1 1 2
95 17 2 0.25141077190412325 2.8350900966481594 0.6427777776620077 -1 1 2
96 17 2 0.8656528492631792 3.326746188245014 2.2812797126012083 -1 1 2
97 17 3 2.100941978900406 2.1870428673639446 0.8942016166442813 -1 1 2
98 17 4 3.087616245611312 1.9010773044634595 0.36431266176649474 -1 1 2
99 18 3 5.7114529174138475 4.2437291927386225 17.488074854441187 0 1 0
100 18 2 5.618305390262731 3.385310226174868 18.143073941745758 0 1 0
101 18 2 4.663504591126419 4.729730332120492 17.549872933538044 0 1 0
102 18 2 6.357815217786795 4.916977199810148 18.06046046471018 0 1 0
103 18 3 6.289791008903432 4.004888775787825 16.203585847925595 0 1 0
104 18 4 6.652526414645164 3.806169544905112 15.11877581249606 0 1 0
105 19 3 18.061802789227716 16.040799488669382 13.513409844568448 -2 0 1
106 19 2 17.66434711274198 16.39316847653821 12.549972495633295 -2 0 1
107 19 2 18.25691104187954 17.0075920309498 14.023569218003827 -2 0 1
108 19 2 17.28372166251236 15.503114524246026 14.155349542654271 -2 0 1
109 19 3 0.9340054689154857 15.37622602091615 13.387922030588774 -1 0 1
110 19 4 2.0203332135114653 14.943957888905638 13.286490490128307 -1 0 1
111 20 3 4.80888531291519 10.391089460062192 18.032634917124053 0 1 1
112 20 2 4.239829644783463 11.00753515498143 0.3262112614650923 0 1 2
113 20 2 4.194142166004125 10.328491881165727 17.088222094352552 0 1 1
114 20 2 5.747506452857889 10.953079617725633 17.844819938460127 0 1 1
115 20 3 5.000192712666925 9.128537708430999 0.2610164079124962 0 1 2
116 20 4 5.247702607740202 8.112368173767713 0.7514963510027083 0 1 2
117 21 3 9.574220296213195 14.505179329038102 11.886730739806062 0 0 1
118 21 2 9.447375424033199 13.607062532841104 11.247780141046968 0 0 1
119 21 2 8.829913181883061 15.329922415835062 11.675726754955095 0 0 1
120 21 2 9.520156558372047 14.145458812843218 12.91749923914085 0 0 1
121 21 3 10.919407180300134 15.079346002790986 11.675032539874216 0 0 1
122 21 4 11.999485286243305 15.465437390540686 11.394860468321292 0 0 1
123 22 3 7.942452334785881 6.913565337768013 2.3340459041907833 0 0 1
124 22 2 7.183281108015759 7.611524678941025 2.6921435439325205 0 0 1
125 22 2 8.203588936898207 7.189008184727816 1.2689027460356357 0 0 1
126 22 2 8.776404603989183 7.151523157226687 2.9852679110055793 0 0 1
127 22 3 7.487693578997979 5.595579582579556 2.577502740044454 0 0 1
128 22 4 7.1366589097054804 4.533484855297409 2.9523626448037747 0 0 1
129 23 3 13.685396286134381 9.169501438793302 7.82999163807776 1 0 0
130 23 2 13.644135938789884 8.696448510284284 6.843503838239054 1 0 0
131 23 2 13.396735904300439 8.34239561721574 8.495000424881134 1 0 0
132 23 2 14.655112085440546 9.504454285229217 8.167368424247949 1 0 0
133 23 3 12.732713451150838 10.278711526124976 7.8433051987157105 1 0 0
134 23 4 12.089471439736409 11.278671536969146 7.764696931838621 1 0 0
135 24 3 13.009439365534702 0.6279634536396297 10.844730968818434 0 0 0
136 24 2 12.015061774500348 0.9754586311702117 11.050733073873118 0 0 0
137 24 2 13.459175178967131 18.383153884424402 11.591078856343703 0 -1 0
138 24 2 12.966491830942873 0.13113971192879884 9.87071670511285 0 0 0
139 24 3 13.891783105617373 1.7671314921913543 10.772977689062973 0 0 0
140 24 4 14.576507931145851 2.6767129870780004 10.522990927400592 0 0 0
141 25 3 7.724899596684146 14.80004233018921 4.953582538602771 1 -1 0
142 25 2 8.25014230598056 15.788062469896307 4.968229684194153 1 -1 0
143 25 2 7.547105039359685 14.627652312582702 6.026510584029565 1 -1 0
144 25 2 6.7630216506578895 14.820220092573505 4.387722242352522 1 -1 0
145 25 3 8.586794154801787 13.76699545400727 4.358956328833341 1 -1 0
146 25 4 9.334603832444733 13.020290284668652 3.8444285912334553 1 -1 0
147 26 3 3.9057429647677613 6.694348135275281 3.1374029533636225 0 0 0
148 26 2 4.742708895921377 6.727486026690232 3.887394339212268 0 0 0
149 26 2 3.2523230623386845 7.619599565697467 3.2541574976257728 0 0 0
150 26 2 4.374531256004842 6.728220779787174 2.1446444498728754 0 0 0
151 26 3 2.9653944009708884 5.590116959486709 3.301111646398208 0 0 0
152 26 4 2.1921980094836817 4.732143901883965 3.4293741693589577 0 0 0
153 27 3 11.256322249072426 5.371315386960031 0.04476927615958045 -1 0 1
154 27 2 10.696606227529253 5.888820826124772 0.8704251394308637 -1 0 1
155 27 2 11.371051218304894 4.295831372784037 0.27735110464310914 -1 0 1
156 27 2 10.774607070648662 5.616955335315443 17.517392389124034 -1 0 0
157 27 3 12.656724014247544 5.865832881700469 18.359856814310657 -1 0 0
158 27 4 13.713479100140708 6.443047662442897 0.0100692957806114 -1 0 1
159 28 3 4.8914650758588145 3.953240741770182 6.227697402192296 0 0 0
160 28 2 5.590217630924347 3.8101714769208437 7.072183153426141 0 0 0
161 28 2 5.249845536482969 4.352033673217281 5.29213210643846 0 0 0
162 28 2 4.4992483050244125 2.970467685084801 6.02648233485898 0 0 0
163 28 3 3.8020278308009043 4.7853082044667055 6.647265837923836 0 0 0
164 28 4 3.1303608568386116 5.509288314601734 7.27311715943292 0 0 0
165 29 3 16.785014235196606 3.812582072928958 16.63642025798721 0 0 2
166 29 2 16.567555572147587 4.188538469176107 17.624891599255786 0 0 2
167 29 2 15.803046451799144 3.706778939645632 16.182099964771098 0 0 2
168 29 2 17.434532729577484 4.500223002656396 16.191294695557055 0 0 2
169 29 3 17.362964662138037 2.472894963074419 16.63617901246958 0 0 2
170 29 4 17.823249362388793 1.4144080568254707 16.613745649873714 0 0 2
171 30 3 16.575293410475645 9.04979225711703 12.669576531504703 -1 1 1
172 30 2 17.59709988440837 9.06257748223368 12.155213919758491 -1 1 1
173 30 2 16.685604164342795 8.922338970044974 13.735392413766228 -1 1 1
174 30 2 16.17006305918575 9.985273259477847 12.4158743793594 -1 1 1
175 30 3 15.59357429736761 8.104498026884466 12.132808668201672 -1 1 1
176 30 4 14.823959684544269 7.338151702394158 11.610071684150618 -1 1 1
177 31 3 13.704200579675838 18.07357771335908 4.504835922394533 -1 0 1
178 31 2 14.389861129886075 0.13400185070028264 5.228567328827445 -1 1 1
179 31 2 14.294287031085352 17.560773779920947 3.749710185767866 -1 0 1
180 31 2 12.98129923888592 17.42198427452878 4.986659097580531 -1 0 1
181 31 3 12.86341093086111 0.781516379879859 3.962610810644304 -1 1 1
182 31 4 12.184008563829131 1.6627253062323284 3.6346235786532617 -1 1 1
183 32 3 9.956195547995057 6.4986141631833405 6.560178957948451 0 0 1
184 32 2 9.982127897777339 5.448072615842891 6.935972785374979 0 0 1
185 32 2 8.916159407013177 6.762910315302675 6.348314662667825 0 0 1
186 32 2 10.33497491654304 7.136612440592575 7.355166911307083 0 0 1
187 32 3 10.724992212156192 6.717479596565876 5.32185096317125 0 0 1
188 32 4 11.267176437137996 6.881096316672606 4.323809320733164 0 0 1
189 33 3 0.45800417000431637 17.879898490179244 3.4955435172177345 0 0 1
190 33 2 0.127849081689957 16.894150402358985 3.895336067999055 0 0 1
191 33 2 1.4708502220649382 17.953775016063176 3.9374217542690317 0 0 1
192 33 2 0.6004448299163345 17.6965836720507 2.4646847449111404 0 0 1
193 33 3 17.943328482969072 0.5145407830679068 3.794135983603538 -1 1 1
194 33 4 17.084670906134146 1.2858312694124017 3.8270853123962127 -1 1 1
195 34 3 13.181878144307191 5.485240749439723 14.698016738737216 0 -1 1
196 34 2 12.568631209343065 4.5871726008778095 14.581946030317843 0 -1 1
197 34 2 13.898101405789046 5.277220818873229 15.536369578561274 0 -1 1
198 34 2 13.757003128113427 5.73753825935133 13.804447134595064 0 -1 1
199 34 3 12.271474055131018 6.557007766806217 14.933110738781421 0 -1 1
200 34 4 11.480053642258559 7.3665118006193016 15.143915725688009 0 -1 1
201 35 3 17.6192962896391 11.83387750199518 7.855118194724242 0 0 1
202 35 2 16.992257558451065 12.70557376512023 7.891393845743192 0 0 1
203 35 2 17.62592844090481 11.516849762274827 6.824592257556777 0 0 1
204 35 2 0.28896139466704174 12.151364473454748 8.027920811544115 1 0 1
205 35 3 17.230276248854043 10.72372663959875 8.702129667751256 0 0 1
206 35 4 16.979947795476793 9.866754429448996 9.404148140583056 0 0 1
207 36 3 17.742830745049357 13.082608566567234 1.1574922205954459 0 1 1
208 36 2 17.853736714317066 13.76515277867473 0.34763980116189885 0 1 1
209 36 2 0.20753760085456185 13.200131596064827 1.823855823346703 1 1 1
210 36 2 16.7905933709023 13.305988001323085 1.7066777092433316 0 1 1
211 36 3 17.7437809930251 11.715031915131485 0.6745199357833596 0 1 1
212 36 4 17.57898945039462 10.586163793199532 0.3583179837935477 0 1 1
213 37 3 16.212920631853375 1.8182376261466882 13.35576088562179 -1 1 0
214 37 2 15.76428843235562 2.538122731178096 12.770936689641221 -1 1 0
215 37 2 16.714291908888185 1.0094581485669463 12.68057530481172 -1 1 0
216 37 2 16.936184776899825 2.226780433156704 14.019911779938225 -1 1 0
217 37 3 15.155428666658496 1.2117967224111548 14.139899792447471 -1 1 0
218 37 4 14.232386341035976 0.7085621619759042 14.689079524088253 -1 1 0
219 38 3 12.152261063810924 10.683158410898432 15.49147924017989 -1 0 0
220 38 2 11.19893129107651 10.050055333976452 15.400591468532033 -1 0 0
221 38 2 12.509830501211756 10.536937523587035 16.49385729428216 -1 0 0
222 38 2 12.92007440558961 10.318694799390643 14.857222585824239 -1 0 0
223 38 3 11.832758914003332 12.05411032335375 15.050523830929697 -1 0 0
224 38 4 11.472990304679094 13.082776799257916 14.65633686980698 -1 0 0
225 39 3 4.793241949382564 6.357527173827669 12.682799880372785 0 -1 1
226 39 2 4.068315250229812 5.7020270017306505 12.190630026940882 0 -1 1
227 39 2 4.429228628255589 6.817872691663711 13.631275838419297 0 -1 1
228 39 2 5.722438923278353 5.879383576513825 12.828468130918777 0 -1 1
229 39 3 5.082769522357452 7.605716521770009 11.91693139224687 0 -1 1
230 39 4 5.328560081336761 8.505116153239637 11.206983203474943 0 -1 1
231 40 3 1.7300596569549649 1.257020431824457 11.14891692135086 0 1 1
232 40 2 1.306283091046145 1.1773442198916872 10.141308904289227 0 1 1
233 40 2 0.9683875677145021 1.209897023973651 11.99991601711352 0 1 1
234 40 2 2.3509337921476283 0.37371062787349396 11.344839097776374 0 1 1
235 40 3 2.3915826795295803 2.5352098014806916 11.199169180392287 0 1 1
236 40 4 2.9167330184183355 3.564351525207794 11.092778252414092 0 1 1
237 41 3 2.8245936383107715 3.4826157150748727 15.269240184201113 -1 0 1
238 41 2 1.8945476209817813 3.6317283430534375 14.717044902794987 -1 0 1
239 41 2 3.335878966499755 4.430828940659471 15.052397586441176 -1 0 1
240 41 2 2.522799263312509 3.2293277702421475 16.29755775031928 -1 0 1
241 41 3 3.3495625166852037 2.3427863352503095 14.646535059260758 -1 0 1
242 41 4 3.6522271398434194 1.3191340962157507 14.167512601593582 -1 0 1
243 42 3 12.226497488561325 1.3338177741048949 0.1462372140286336 0 1 2
244 42 2 11.29344072958266 0.951193375903156 18.229714012585553 0 1 1
245 42 2 12.044451167076918 1.902763936978275 1.0665695012292886 0 1 2
246 42 2 12.89161304520829 0.5300712420816454 0.5038711503460023 0 1 2
247 42 3 12.901600610006117 2.2213330288166393 17.627138438637076 0 1 1
248 42 4 13.41230477677299 2.876497215980492 16.813782730439847 0 1 1
249 43 3 12.902232662003986 12.880610730268888 4.41659030242346 0 0 1
250 43 2 13.600656728220079 12.542998058300649 3.5799558189315936 0 0 1
251 43 2 12.104410401132712 12.130452949879126 4.583530428568986 0 0 1
252 43 2 13.596806226110738 12.89088704081325 5.295100507232299 0 0 1
253 43 3 12.47104943103029 14.207412878863744 4.069071473209019 0 0 1
254 43 4 12.2891995730821 15.322373774817832 3.7924273476969317 0 0 1
255 44 3 6.78528135132102 10.58016356899963 3.6270995293876265 1 1 0
256 44 2 7.444931340243128 11.359429313564693 4.050656132177799 1 1 0
257 44 2 6.9482927390868285 10.260621896280737 2.612879451540012 1 1 0
258 44 2 6.864181042420218 9.700375947333747 4.349061004706351 1 1 0
259 44 3 5.379265671462603 10.974503626307797 3.6451808283681038 1 1 0
260 44 4 4.223418326241343 11.25518505209022 3.674896669714784 1 1 0
261 45 3 9.78358570695467 3.4211962536128313 14.66004750040497 0 0 1
262 45 2 9.005033203639464 3.4639625061629005 15.33082293502911 0 0 1
263 45 2 9.786736354444582 4.409991907233966 14.232028535712576 0 0 1
264 45 2 10.742904569242071 3.2979696919024915 15.328591066571182 0 0 1
265 45 3 9.827336128480496 2.3341834649785644 13.720117016489079 0 0 1
266 45 4 9.839131147736342 1.3013956612999749 13.181333678389013 0 0 1
267 46 3 9.431121284797616 13.446368262015502 18.09551482284312 0 0 1
268 46 2 10.385353253005777 13.02383131955427 18.26193325889809 0 0 1
269 46 2 9.2766579687157 14.3351313990926 0.3648854647380292 0 0 2
270 46 2 9.439838122172507 13.742308196168217 17.05784001247956 0 0 1
271 46 3 8.350953889165934 12.513376163184082 0.02665700071185041 0 0 2
272 46 4 7.5050290373760165 11.854703486469878 0.4898668752710398 0 0 2
273 47 3 9.892379575630127 0.7948512258220821 8.493190914047993 -1 1 1
274 47 2 10.523167105776562 18.292261233956523 8.212303486384814 -1 0 1
275 47 2 8.937888285066734 0.7673636118036689 7.832074686210502 -1 1 1
276 47 2 9.672832626408262 0.8326058979508701 9.60025049986922 -1 1 1
277 47 3 10.65403454986044 1.9528625269871362 8.108828059176835 -1 1 1
278 47 4 11.144265738678234 3.0281667179811524 8.007068739472341 -1 1 1
279 48 3 12.509879537467635 9.881274391445901 11.6788679904152 0 0 0
280 48 2 12.458250749240548 8.798771740826536 11.677783595352201 0 0 0
281 48 2 13.032715799230163 10.154399856779616 12.633430027501456 0 0 0
282 48 2 13.11036287062265 10.14103852452804 10.805700130290582 0 0 0
283 48 3 11.285869519491408 10.63983803094007 11.516193305209791 0 0 0
284 48 4 10.439154220982683 11.422543822976138 11.394557465609193 0 0 0
285 49 3 0.16113952359381414 5.863109579214053 5.657857801674849 1 0 1
286 49 2 17.580680264330482 6.150412320360147 5.241554891659074 0 0 1
287 49 2 18.282512355077134 5.49856030054058 6.687345226766183 0 0 1
288 49 2 0.7143049730537071 5.108571456986507 5.021648671207451 1 0 1
289 49 3 0.899084136715494 7.081595762360741 5.8841684018275755 1 0 1
290 49 4 1.3431146744950333 8.108526643070922 6.217559359745956 1 0 1
291 50 3 1.9372263023052556 7.419822954247029 15.472749077285474 0 1 1
292 50 2 0.9285104779501787 7.155708325874649 15.720371196071484 0 1 1
293 50 2 2.398208440870626 8.11429140018343 16.221378480919075 0 1 1
294 50 2 2.577418791443734 6.544913237756292 15.426823699666762 0 1 1
295 50 3 1.9028302928138532 7.982519142301854 14.094725364669824 0 1 1
296 50 4 1.6319654679631497 8.437464764170693 13.033708286004378 0 1 1
297 51 3 9.859306968144823 14.452662592691603 8.231548723316276 0 0 1
298 51 2 9.083323005696341 14.682901551330875 8.95089960615925 0 0 1
299 51 2 10.37598221625259 13.460687876335747 8.39987041187985 0 0 1
300 51 2 9.390429401333813 14.23138493324575 7.287466073584567 0 0 1
301 51 3 10.855194030875621 15.51464749827274 8.147695884177937 0 0 1
302 51 4 11.63105932194946 16.3686634385606 7.847297671331832 0 0 1
303 52 3 16.71028900162586 14.805368358626067 5.725695440176244 0 1 2
304 52 2 17.726798089016395 14.719171787836858 6.249201441358637 0 1 2
305 52 2 16.32431901847478 13.798820559255455 5.8572632917993745 0 1 2
306 52 2 16.137625876590892 15.649201014801044 6.231011654994776 0 1 2
307 52 3 16.75035804824696 15.143535313156203 4.343356312961842 0 1 2
308 52 4 16.49238994292025 15.404429177779562 3.213207330826673 0 1 2
309 53 3 4.672022820259555 13.71618256413505 1.636254968949211 -1 -1 2
310 53 2 4.851435425475591 12.77821678113436 0.9770614802529672 -1 -1 2
311 53 2 3.838796821148777 14.367076836298738 1.1709301753208077 -1 -1 2
312 53 2 4.381616361439935 13.443443896912338 2.6611891561358463 -1 -1 2
313 53 3 5.872510753025548 14.44036596752391 1.6428391577118082 -1 -1 2
314 53 4 6.865809922094325 15.076969680954415 1.6336854863219836 -1 -1 2
315 54 3 5.167447991237576 17.819032419999523 7.1763196686617094 0 1 0
316 54 2 4.44707958936682 17.76775888720435 6.322399575881785 0 1 0
317 54 2 5.256215113418114 16.83168428751162 7.620190804477737 0 1 0
318 54 2 6.15571466093414 18.208895018185206 6.8583933708364295 0 1 0
319 54 3 4.822547645711969 0.2909275738453036 8.214079191393134 0 2 0
320 54 4 4.66221863537659 1.0430721578594944 9.098812005229519 0 2 0
321 55 3 18.297849246874712 6.97426044287743 1.462684655233651 -1 0 1
322 55 2 0.02098691831128668 7.145123551315093 2.5462917287364895 0 0 1
323 55 2 17.54504329322476 6.235856701079061 1.3320808020578474 -1 0 1
324 55 2 18.015177842989385 7.806762741247991 0.8231478590488899 -1 0 1
325 55 3 1.0615820184607023 6.41759870909288 0.8403081335706176 0 0 1
326 55 4 1.8632525922406893 5.723254091634172 0.3642793106720328 0 0 1
327 56 3 1.5047215573928856 2.3811086606012823 6.423489874858535 1 0 0
328 56 2 0.7669797710586387 2.9667651544579576 5.845580218466723 1 0 0
329 56 2 2.2521304915790776 2.007718195805475 5.7569261045440605 1 0 0
330 56 2 1.9574333672800552 3.0815097091445693 7.138950877684395 1 0 0
331 56 3 0.9541298133586485 1.2559298322847896 7.196420190357553 1 0 0
332 56 4 0.45625543453240147 0.39061310021869283 7.78945291928092 1 0 0
333 57 3 14.695380901857206 14.10278709023149 14.004371833998283 0 0 0
334 57 2 15.096898256934429 13.910066833552134 13.002312816951745 0 0 0
335 57 2 15.162039593817337 15.025820582422558 14.464706638239269 0 0 0
336 57 2 13.584111679287691 14.377295026972496 13.93977569093614 0 0 0
337 57 3 14.938348790622019 12.932542407786197 14.808439510860808 0 0 0
338 57 4 15.296842951945596 12.053216053478367 15.474036156703699 0 0 0
339 58 3 3.129370917874296 12.976331348819588 6.236709372674435 -2 0 1
340 58 2 2.0289130075179536 13.024122304186307 6.373919781826224 -2 0 1
341 58 2 3.5618997868039206 12.698044882138984 7.217910756887591 -2 0 1
342 58 2 3.4136490754749316 12.116506448572556 5.650388526571373 -2 0 1
343 58 3 3.7695248586101036 14.188869355911418 5.758644979946438 -2 0 1
344 58 4 4.353794755335879 15.139387909426073 5.375109339110395 -2 0 1
345 59 3 13.561148590509237 13.141268255287427 10.050634690775151 -1 0 1
346 59 2 13.962923707578637 12.248935472161369 10.654112033134506 -1 0 1
347 59 2 12.537599684871864 12.767883277188043 9.79644370141321 -1 0 1
348 59 2 13.32499511799495 14.01840332350003 10.69248073376171 -1 0 1
349 59 3 14.342917150725844 13.512004046179237 8.94128837566849 -1 0 1
350 59 4 15.0927331392535 13.8370939839658 8.073967594758928 -1 0 1
351 60 3 5.634989743564278 7.899977489465782 7.8017264195345195 1 0 1
352 60 2 5.73011728037645 8.907242595768299 8.203298423544382 1 0 1
353 60 2 6.18718743929397 7.172105318179638 8.460088036817366 1 0 1
354 60 2 4.595199019786485 7.454001863116201 7.865200250774837 1 0 1
355 60 3 6.161182472718881 7.697525759775621 6.50970087722364 1 0 1
356 60 4 6.642439299268597 7.473950916042031 5.483594072945217 1 0 1
357 61 3 5.93796629513002 13.002990689506069 15.67319171551186 0 1 0
358 61 2 6.209793210425044 13.157583893533209 16.678326876671733 0 1 0
359 61 2 4.850786512031172 13.250399822329243 15.603487308471049 0 1 0
360 61 2 6.5501506800405425 13.631427825217994 14.95208100819202 0 1 0
361 61 3 6.046990056269868 11.636695457952491 15.227573405401628 0 1 0
362 61 4 6.396838968718281 10.557085163952792 14.963276409188634 0 1 0
363 62 3 8.923164263603176 2.696489822012702 4.79930883755569 1 1 1
364 62 2 9.654808229841038 2.894355961966563 5.626120156305593 1 1 1
365 62 2 8.06687866374493 3.3531016115886856 4.878733230724862 1 1 1
366 62 2 9.4591084868162 2.7896803904991976 3.8131039290173705 1 1 1
367 62 3 8.357643639398193 1.3953399510055229 4.9297096547117025 1 1 1
368 62 4 7.915951700707844 0.3769989658570868 5.287937622194696 1 1 1
369 63 3 5.502085839830897 1.19232318626878 2.3740846289648716 -1 2 2
370 63 2 6.247934630806597 0.38450544890683425 2.506675250162731 -1 2 2
371 63 2 6.07430923560184 2.1499585469689344 2.33688124735965 -1 2 2
372 63 2 5.025936745242507 1.0817742278827285 1.355266546480605 -1 2 2
373 63 3 4.5326691246203605 1.1617733673758392 3.3981186920565496 -1 2 2
374 63 4 3.753553827498585 1.0505894347977458 4.258898446921354 -1 2 2
375 64 3 0.15028381839675142 11.961865135211527 15.193388541701195 0 0 0
376 64 2 18.04773322323966 12.17960297358308 16.151645752584702 -1 0 0
377 64 2 18.212673264682426 11.007844513991511 14.720238600530987 -1 0 0
378 64 2 0.04649259291551401 12.769609332805743 14.494147788793242 0 0 0
379 64 3 1.6350935040673849 11.889021663626407 15.363319925784708 0 0 0
380 64 4 2.7787460584130956 11.796618951915729 15.598347264230851 0 0 0
381 65 3 15.864052847692887 4.012907405830727 2.9930100932444197 0 0 1
382 65 2 14.926014638435664 3.9122301665296133 3.558439806857597 0 0 1
383 65 2 15.938604947155673 5.0238036156177746 2.746544710034281 0 0 1
384 65 2 16.700257768707626 3.7701572516404833 3.6954740427770054 0 0 1
385 65 3 15.769911472398375 3.1790416121669685 1.89493921884801 0 0 1
386 65 4 15.709102881361858 2.3397503451019137 1.0730379745464302 0 0 1
387 66 3 11.773516302484728 5.096127133805665 11.136834809472154 0 1 1
388 66 2 12.14325469285479 5.204242268276083 12.194712477715893 0 1 1
389 66 2 12.471673517052311 4.609206857697227 10.519891412987693 0 1 1
390 66 2 10.759073493834082 4.633398208989943 11.202835002797428 0 1 1
391 66 3 11.567584918110102 6.39503296066006 10.58730355523508 0 1 1
392 66 4 11.355516971947894 7.396332096801379 10.084427097558713 0 1 1
393 67 3 6.2847124295127115 16.864493430204565 11.638218537486578 0 -1 1
394 67 2 5.428238286871698 17.529968918697204 11.527561589730576 0 -1 1
395 67 2 7.028077915139655 17.521929717130448 12.172676359931343 0 -1 1
396 67 2 6.057461746343457 16.050910872742097 12.305515737848578 0 -1 1
397 67 3 6.776641065696645 16.601951669402386 10.308356211678724 0 -1 1
398 67 4 7.317381652824545 16.534996909561617 9.27159283326877 0 -1 1
399 68 3 3.1849200115601284 16.01039139649962 10.39884919145127 -1 0 1
400 68 2 3.1058500697777154 17.04631871340917 10.07766168015966 -1 0 1
401 68 2 4.190603676245938 15.61751930009701 10.233880865540915 -1 0 1
402 68 2 2.8434847968423247 15.896039163678221 11.399071215592484 -1 0 1
403 68 3 2.2213046597282364 15.32251603809971 9.54535739329882 -1 0 1
404 68 4 1.3806817874843647 14.652385056752644 9.090926331696666 -1 0 1
405 69 3 17.209586896341207 4.976902475370405 10.995645028879983 -2 1 1
406 69 2 16.854343230610084 5.99366059735598 10.826662995120914 -2 1 1
407 69 2 16.415073926061215 4.306075389764733 10.76402522001776 -2 1 1
408 69 2 18.017548213476235 4.645048963557395 10.414333534097555 -2 1 1
409 69 3 17.636035789331903 4.917119601749211 12.375851640031001 -2 1 1
410 69 4 18.256392364995477 4.897134912846768 13.41278715725121 -2 1 1
411 70 3 8.730154077877971 8.589104931154855 12.019806147375505 2 -1 0
412 70 2 8.838978361595522 9.15079675938641 12.956362572616662 2 -1 0
413 70 2 7.738988243352788 8.820498412202763 11.703405170693383 2 -1 0
414 70 2 9.534250101779163 8.816565346184097 11.355527422077316 2 -1 0
415 70 3 8.906605910961508 7.156952783766387 12.356058737382115 2 -1 0
416 70 4 9.311061259046797 6.0764528333235655 12.470051555830514 2 -1 0
417 71 3 11.962658093092672 16.652587044680107 15.675950540958194 -1 0 1
418 71 2 12.39317261491288 17.601669193861632 15.315522480396737 -1 0 1
419 71 2 10.883315974730815 16.71055757259908 15.455514324260763 -1 0 1
420 71 2 12.378234393426853 15.759212538304563 15.252824383941915 -1 0 1
421 71 3 12.216907823440144 16.547795455875004 17.158798605606222 -1 0 1
422 71 4 12.384185915593946 16.593739389991285 18.292588991768596 -1 0 1
423 72 3 6.549949661962679 11.553433055536026 9.362583396232639 0 -1 1
424 72 2 6.383856409120645 10.7879444015908 10.123642569943103 0 -1 1
425 72 2 5.55272958893338 12.0016533881091 9.02948296036275 0 -1 1
426 72 2 7.192977683791005 12.38497724666489 9.763094581130098 0 -1 1
427 72 3 7.052053127876397 11.035427553232967 8.152382013550566 0 -1 1
428 72 4 7.442395076640336 10.928971558191328 7.055570235497477 0 -1 1
429 73 3 9.693159873321429 16.752712285304565 2.777063017942597 0 -1 2
430 73 2 9.83236458046657 16.921442366578695 3.817217150763328 0 -1 2
431 73 2 10.603575671133036 16.253843091860766 2.3646714226756242 0 -1 2
432 73 2 8.994632031265581 15.980448058733266 2.648091513790748 0 -1 2
433 73 3 9.323757576776497 17.848278360633394 1.9480042136908755 0 -1 2
434 73 4 8.917513681452117 0.28137933269791665 1.2316631410596937 0 0 2

Velocities

1 -0.7089853452737923 0.9597968300664557 0.0583091318465327
2 -48.4885738215665114 113.6071890296870635 -38.4074919568661528
3 -0.5461600889478244 -3.6823139723767468 -7.2165149010564731
4 1.0186336365512467 -35.0036593799029063 -19.8437314317569573
5 -25.3078611700347871 -19.2653775741995972 16.1227516857692628
6 -1.4694423507297525 -4.0373933692643149 -11.8505160850686000
7 -5.8243531320062427 -4.7585601877512760 0.6842553232569233
8 -8.0151744677851013 -8.7674500785481264 2.5832058683939119
9 -0.4180784373035371 5.0627994619507826 0.9409963125036405
10 -33.5786678155391414 1.7177619866354272 -35.6438330494596514
11 -19.1274669714836385 6.2646678578356942 14.0525664562347430
12 43.0816111244062938 -9.5082614198809257 19.7936910085707325
13 0.1611310080172132 4.5227410770011476 -5.4269182028888281
14 -1.0249541688090342 -1.1456438112694352 -4.6247109384880156
15 1.5627853623279724 -5.7817938338574200 -8.9573250615575724
16 -7.0752368779500845 1.3667763893819407 5.4306715213573602
17 -6.7920376770059452 6.7899073718675673 -2.1270288658789016
18 9.2291874142894699 14.1441221109400370 2.5878165309039529
19 -8.8582447033917404 -2.6873207976060116 3.5660850638582140
20 0.2067022391988080 -1.8367192081304073 0.3237289183478692
21 -1.9240944187421594 -5.0195490513914223 3.8227266669244937
22 4.1377717657148612 -28.3161156329863424 -0.9038167329466754
23 15.2899243497136865 16.3943908986067370 -25.2788662186811735
24 -36.1248173253607447 17.8124102659538863 8.7235134833441226
25 -8.1357806349080590 2.3217292968608221 7.2443566681910303
26 -1.5770856563741096 6.7007398517101331 -4.4357902572885015
27 -1.1117736635345044 2.0842967794821998 -2.1455122743266699
28 -10.7114414935960944 13.9128872152695564 1.2447593607083713
29 -12.7769711922569922 3.7419524519884244 -22.6159850249104331
30 -30.1908026926968773 -9.6779665446337582 -13.3082619762100087
31 -2.4270761126763163 2.3477348449691653 -3.3673211755979078
32 -1.6044341289564219 -1.9759270203067039 6.6489077209363066
33 -0.8341007437361384 3.1793614095585503 1.7113210183725724
34 21.0630024725488241 -17.6134195874011290 1.9377485131392089
35 -2.9083500004268497 -5.1787590581527132 7.1481194316177330
36 0.3145362232484130 -23.6903021039959505 -17.8105768647669400
37 2.6809414902379718 -1.1450214900508306 -9.3455524608397056
38 1.5940186617479564 1.0034263896845053 -7.2173377220954347
39 1.4389604607696000 -3.5966634480292043 2.2024802560651437
40 5.3476437791832616 10.9328027224435615 14.7216480463611763
41 25.8883828936903448 -5.1523701464448708 5.5412442345240880
42 7.6448834521794273 -3.8023188547692639 -4.4464875768906742
43 4.1291166502222119 3.1586209646616239 -4.4695733326108451
44 -2.6214225857662004 1.9067797365255192 1.6105049927508843
45 -5.1787148195138730 3.2388914095650390 5.4245736207841162
46 5.7416099267464773 8.1641453710251195 -41.9288277959860025
47 35.0154294538088351 30.3606900869873009 -10.5500405156352652
48 0.2860495061425758 3.6608913819480740 -8.0402002181592209
49 -6.2212757832982000 1.3711911563109591 -4.7256519928844716
50 0.6134240874190137 3.2668028437451397 -4.4927165756379424
51 -4.3292545459423355 1.0567829103331972 -4.8739838101220672
52 11.6618940409452012 0.7805090570977411 30.3285567849381472
53 -32.7269017820972650 3.6062619530620350 20.3978371988047300
54 8.9203391137799350 -30.8436926992522267 -14.6463271523375020
55 -5.5746865313509364 -5.2181633321525993 1.9286468827770835
56 -4.8914544998242233 1.6131347409209862 1.9226242238364710
57 2.8229313963177782 -3.8571466662212757 0.4834624972622907
58 -2.1904445818428107 2.7589072584773686 7.4271959505148271
59 7.2578530103413259 22.2183788001613109 12.5075862565584721
60 15.5750432817778819 -2.0930093515457404 -5.9928291508024616
61 -8.3660834193143252 1.6159319741260605 -0.8303510844106367
62 2.3604920558486766 2.3847697592405082 2.3225630425712462
63 2.0688106066045218 1.4802685578227670 6.2837674236903185
64 -4.8084574175044148 0.5872394359948790 6.8515607319425635
65 -34.3623855385825863 -8.8590230534038525 -7.6206634061800358
66 5.9545107353501541 -19.8918378129152877 -3.7064042343415800
67 3.5973153033834806 4.8514803793043519 6.7988143529280158
68 0.8721443923435497 -2.4289778734067013 -6.6802643899615424
69 -6.2483703436222973 -5.4926658307076366 0.1119594019714417
70 -9.8188338470553536 2.3140992258256166 -17.1076727613291268
71 1.3930551260561095 -16.2857953914348847 -21.8829704029690930
72 -1.2260384684873999 6.9164750633563257 12.6978268497287718
73 0.9039488765596964 4.1772480617945762 -5.5963638463923093
74 4.4923814811573770 -1.1510945315531709 4.8319702463368479
75 2.9186122531420917 1.0231523704064396 -0.3246566499969791
76 -1.4409076631641207 32.9196096550320121 15.3344673916381300
77 25.4163818948036493 -16.4014187890089751 17.3023744968111366
78 32.7415323992602438 14.4944408612529809 -1.3873547068584300
79 -3.6460786738543454 -7.7419200124230434 4.8082635152667441
80 2.7066320450150623 3.0076794896487367 -3.9002447336823649
81 4.1182157218283244 -8.9439950361711897 -9.3748886334887036
82 -9.0863693436544697 -27.9093715376448479 -10.6463679964387961
83 31.2492784393736969 -2.1211121598286100 -5.0721442596382778
84 -25.4819864784190209 -3.8741541007021656 -35.3474002286519067
85 -3.6647189934128801 -2.3009586246531417 -4.9620433593418305
86 2.3314326225632032 -0.9666524371150534 4.6802440336092612
87 -7.0527994370765335 -1.9150498963321221 3.3341910579510055
88 -4.7333252728542563 -6.0390367818291208 -2.1915698411219067
89 -7.5535191130870762 7.6291022012800926 30.7073753171417287
90 5.4422677599570841 7.7037594686379238 25.9821789945928998
91 0.5462995518331625 -3.0106124505562972 5.2651171128303096
92 3.5150602129613895 3.1363280630774657 2.7566298700459702
93 2.0989456154859969 2.7952250567874302 -5.8215605488956959
94 -2.8717357617239707 -5.4874980875172685 6.8220722966286402
95 -4.9274070848688707 21.9708339926738994 6.2071860583206808
96 3.3577420229526100 15.7192618479650257 -3.8213574901134142
97 4.5468323331053826 2.7236614099185847 -1.1486576604949441
98 4.2737294521962141 -4.7678955368167983 6.9720192391102147
99 -2.2995500990476239 5.0643372293287623 4.5625791586299149
100 7.9125971796325691 0.5989818815590603 9.9216344351598114
101 1.3018694414861276 -8.8576607790179764 1.1460763219197767
102 3.7934137467025577 -19.0055653903665771 -0.3977565789125033
103 -0.7620075224046642 4.4458015679141303 -2.4671054162312718
104 -0.5311408864522015 -1.6468631089197492 2.0451005059289069
105 -8.7215624235461444 -0.0059742093272109 8.0568582942935851
106 -8.6897859516689184 -1.7406037351002877 -0.2506227106108443
107 -21.6770508874495214 -13.6845296761073900 26.5412826507908264
108 16.6693155641392963 -6.8690252270357508 5.2292264229765379
109 -5.8492176105065630 -0.7107514100669554 13.3212399491757552
110 -1.7329008780748183 -2.1089835340285878 4.5614737797823555
111 2.8413750475252231 4.0136652132347850 8.4876552768991562
112 -11.7562342775687565 -20.5877023940120445 -6.4744396400682671
113 -3.9544809491347697 9.0215460933092420 -6.0069586871269252
114 -14.1364196754641274 -5.7791283218278755 -10.2132083889212755
115 5.2857973110861414 3.0588061063097682 -11.1097839612768343
116 1.6915114057122214 -0.9565786606932168 0.3483848709760582
117 4.9924960643590879 4.1846783035534871 2.5128454012869268
118 -1.8710770092921212 -0.5184207026992876 -8.4712213091777731
119 -17.3384229233219429 -27.3944552601643281 2.7005238895727253
120 8.7938270610213713 -5.8398257180325475 13.3263706543093772
121 1.0230944543290548 5.1758597369344415 4.2376898651112365
122 -7.7166675275068286 -3.2633252187835904 -2.0512310524640385
123 1.0107671065735029 -5.8913502210118942 2.2175840149576329
124 -11.8087676809077440 10.0406943001152005 24.8390172156978331
125 -5.7178565146964653 -20.6121853221319604 30.1902219901318851
126 -3.9099706957341755 19.5291236999311089 12.5151639900225433
127 4.0811010006749306 0.7022804758351131 -2.0818934029158083
128 -1.3262988105036828 8.8660300960951499 -2.7060774570065536
129 -2.3340724717419645 -0.4279948693001633 -2.6628316176478877
130 37.4549272004763125 5.9596367110541406 -3.1862515627797046
131 3.1212255787635872 -0.8776378597107424 11.1990419020560790
132 -3.4107645126896240 -31.3294046547469769 16.0838218885010420
133 -1.3316471535730303 -2.2595596693280298 0.6162701176706435
134 -4.6383408984912355 -0.1145089207501794 -4.9368452620010963
135 3.6058359374659825 -0.7986185813305653 -0.6794453406094051
136 19.6638464778587405 -10.9727358772800425 16.1631238569136748
137 11.3120643030520078 -10.1083601486665735 -6.6706098373475360
138 18.2297921051017688 19.3301160066013686 -17.2343697151343704
139 1.6935931346181436 0.1661669446700340 3.8680455992431217
140 4.8838678840327878 1.5359194668510112 2.0447436571110518
141 2.7162260999988455 4.1273112876926605 4.9547363396366570
142 20.5824636213071663 2.7063901702908058 -9.7470269286833773
143 -29.0416994524721126 -7.6852892017481249 7.1289632159374969
144 21.9646348223573860 -4.2997173890616347 8.8223140600228174
145 0.4767472593773581 0.3928988867746044 1.0991791967652424
146 0.9898487992762547 2.3630720291241003 7.1945136148602646
147 -6.7905764916834546 8.5034335934558065 1.0268682038589751
148 -12.4708365803881254 0.7869468254030235 10.2062150452331899
149 -2.5205713763630024 2.0870349156630401 -23.2202704721705047
150 3.3013932484494424 -52.7782572241760306 11.1627347369574430
151 -5.2244243201883833 2.3899617273316647 -7.9855463146287935
152 -7.2813280399568949 5.7608493535349199 -1.9405500017331767
153 -2.6100819278930705 -2.7073638167171321 -1.4838564235261640
154 1.7429258265407688 -14.4283908197073654 11.3095626232682012
155 -10.9116781384566668 19.2759583092004476 3.1068034195190317
156 1.6546323928492412 34.1324575021029659 2.5808296208411510
157 -3.1931337533789170 0.4113879727326148 -1.2099447901018059
158 2.2747217018291366 -4.1425429469473807 -2.4715624426480995
159 6.1793599515195226 -5.7097890543027701 5.2015343679148325
160 -2.4961575031443410 23.3517792053875120 -11.7571016058380593
161 -20.6322614089600052 -1.5729692130789907 20.3252364944503299
162 4.5320919682913487 -3.7709908471034859 13.0242745868005230
163 -0.8049810813835623 8.2487818751087545 -3.8972421348899386
164 -3.2347603837994914 5.0903855352462921 -8.7433858842904488
165 4.9254810834018423 -5.2636679883140642 -3.6873055155217851
166 15.4948944605585961 7.1225109610660011 27.6330257555613557
167 -5.3137050615464467 8.5083879689141924 -13.7146958144037310
168 4.0465137835643201 -6.6141375794319819 -2.6486238270111881
169 -2.3503936296097567 -4.9578732699839509 -0.6972149110694814
170 3.2213987628959297 1.5466269240731807 -2.1197198592202113
171 8.6874889334310286 -0.8508387863713404 -2.3687116752307387
172 14.8211196515408368 -8.9519731369943987 8.4664318452496303
173 6.4119467944471475 41.2658866969931282 9.8149168795568329
174 -27.0692407328542117 -19.2391689512574331 -5.1376694216494689
175 -2.0389014980930606 2.7209440819273181 1.8243630486885274
176 0.1970564547622350 -1.9507857053343705 -0.7081519718607858
177 0.8139779186287524 7.7830643261257855 -0.8887863413186005
178 -13.1004689224752315 -2.0888464035789895 6.6438365394346910
179 11.2571275904151982 26.8770372594947240 10.8717824324326067
180 7.6266756653096115 -6.2348982809373918 -9.7458641577982590
181 -5.2683422406141958 1.7480092798015676 3.8002598104562373
182 -0.4365872509010653 -1.3724249883854853 -4.2699946125596586
183 -1.8941199630867118 5.2595004201130253 -3.5675431826517059
184 -21.1881845072793702 8.7323231962672114 -15.3067133004363178
185 -8.9427764964731349 7.4169561905864283 13.5664738320839877
186 13.8436655326685152 -7.0593687530445628 -32.5589095994658280
187 0.2062194507429160 3.7082509207613819 9.3002485128301622
188 -2.5465221708328860 0.9759722501136278 -0.3583610413239467
189 6.9524454126201940 -1.3845053618058554 -0.4294063917672073
190 4.2707704133667077 -20.5317517629549826 -25.4676902651221653
191 3.2972571853381787 -14.0404578186307329 -11.4941171070232713
192 13.4024156376665839 1.0983732964810700 -6.9682868566637355
193 -2.2719226387799845 3.7160986728570302 2.2397248069750155
194 2.7023033400309280 -7.1774717306258768 -6.9563297835301556
195 1.1404018333053785 2.7228320359762046 -2.5547143557667482
196 -41.2396802556468955 33.1295983392869076 -42.5962780291198442
197 8.5264082961443304 -5.5465727294283447 4.8024700642678804
198 -0.6587948143521203 -16.9208251693209029 20.6341301379750135
199 -0.4313595766986789 6.6552145494576607 0.1537499396594777
200 8.4647155101955072 2.7499562177773629 3.4195080540544622
201 -1.4873312370911820 -0.0132070104583727 -4.1190965901545002
202 24.5816848626241082 16.8572434122449231 14.4412279225320894
203 -18.0634793640704423 2.0760743476315890 26.5312617940494455
204 12.5243688244174169 18.6677366298939589 6.4552288679014564
205 -4.6478766212590363 -4.3566757599797050 -9.5611249065220747
206 5.0769672509745574 2.0770691524194378 0.8599326148721476
207 -1.7572815905356263 -7.0947969728027367 -3.2136722514613290
208 -26.9161288975582025 -9.4006187277377578 -2.5597875147195301
209 -1.9687670425137189 -1.0720004013819231 4.4403911664489204
210 21.7531926681636811 18.9325691581005948 -25.4580253744588347
211 -0.6375443176878683 -0.9053125085004859 -2.0257276679035652
212 -0.5425236016917215 4.0040162547344460 -2.0243573898832383
213 7.1539551799431340 6.6580375785425927 -6.2498390421189693
214 -17.0931027016987791 -23.0980993092136693 14.5075452257530948
215 -19.1891445315034268 21.3706999680202046 7.8105915907050329
216 -26.2661362549921016 -8.7155888994726620 30.3790025803871977
217 1.9534370078910883 -10.5827892736916453 1.8212280060883492
218 -5.8181948904303322 -3.9689277402468743 0.3946706950789439
219 -3.8295839547098587 0.1846956542781287 -0.8359378938150012
220 -26.6316662197972178 6.9743725614970451 6.1091726659258514
221 2.5904666590496870 9.4518475942775755 -16.6503581895309587
222 -22.2522367752810197 0.5611221038508543 -7.8097639622619557
223 -3.5955750351252869 0.1615601363666882 2.9704661311469938
224 -2.1941079540918280 -4.1200305530985393 -2.5132466979523147
225 -9.4569019650327828 1.9666992417228646 -7.1027899725753940
226 -4.3990217371329585 3.4195300474557726 -9.8359701086389553
227 10.1130659251289963 -7.4791158456334719 7.1633124887365840
228 -4.7889331931142669 -0.6283994294188530 28.0162231123429848
229 1.3252676218804842 -1.6511993210959135 2.3668359732508186
230 -5.5387810674950586 4.5650509726361959 4.4144935665613216
231 2.6928812890089655 -2.0924358235615546 -3.6756751319237169
232 -6.4910536307504527 8.7498094437284486 26.3146362027424878
233 -34.1245319893357930 9.7893943668781578 -18.5154044769906179
234 -16.8931793374332351 16.4648189512909155 -16.1866655860007391
235 0.0426539112331246 -2.5277214138221495 3.6494814542349996
236 -1.0192920668429863 -1.6512594103070544 -2.9757179129228737
237 -1.0231434503859966 -0.6985948085187459 0.4067162581764707
238 -11.2411328511449380 1.2458263737960382 6.9586326511554182
239 -10.5914856249732594 -0.5224815535595064 0.3349889144688887
240 -27.7746867283234025 6.7513975715836203 -36.3287333593442980
241 2.8361004405904935 -1.5515109165016854 -1.6771355595276423
242 -3.8892164655552777 -3.8785168198914883 -1.3867102082676632
243 3.2867860064599554 6.0132066234570045 -0.8071796848002605
244 -26.2947024911978815 -1.1918523442394884 15.8951319306276808
245 8.6661880279785102 -4.4893435297057565 -1.3124946515797231
246 -25.0915853422240218 -16.0281010524166092 -4.7279144803483559
247 -7.6154050341066526 -0.0327294574268036 7.0622395208015627
248 6.3611254464190354 -1.7836075645618454 -1.6827410786721388
249 2.5814984259508433 -3.5188187879767354 11.9901652282933959
250 -11.3476987491847154 -21.0198692776071994 -36.3476182286736531
251 17.8064992972228637 5.7480685604000463 20.1571195687283620
252 7.8534122955937118 4.8839190810685178 18.0267327725296447
253 -0.9503573635446394 2.1073370613093347 -0.2000181742838579
254 3.2324904735381779 0.5659842421898800 -9.4220333591883190
255 -5.1133694790391742 0.6337147241472744 8.7002966057482425
256 24.8234914630560191 7.8038839964275217 10.9426377884350448
257 10.5265181027294403 -21.7980504438764626 1.1087246926893650
258 -0.2481439812283996 7.8471696561185889 15.7300408547221622
259 0.1291883842469582 -7.8246100687694407 4.5546007747634736
260 4.2687128489786463 -10.0801538488636151 1.9179728741584783
261 0.4179292167375014 -2.3755716847366286 -6.4612267518464561
262 -5.6427636449496159 9.3223571003663626 18.3309803298447562
263 6.3151341015696048 -32.1773895401271375 -8.2026588453464200
264 7.0053213806089776 -21.1448762275918405 -20.3940800788720473
265 -4.5412495213445618 11.9276919157872605 2.1055485045520066
266 -2.6916156809534453 1.1610964924940932 -5.3323887029842592
267 2.9494836068566759 6.7132521489846892 5.3845425672495688
268 4.6169119175530611 -20.9914993307341895 -9.3783912356955899
269 10.9294392226297834 -2.2722867045719908 10.0850386667895631
270 6.9693849151974607 18.5371881378607810 46.3286035997666730
271 1.3041936668254814 3.9231812463505098 7.9365405295124116
272 0.1694867683211003 11.5984123068193554 3.9094994508246343
273 1.9364963043476795 -4.7819166692904531 -3.1091766972159349
274 -22.4613007778988099 -27.1189759093690839 27.1716088685316990
275 2.5834988210010694 12.5405833302753660 10.5774279597616179
276 -5.1721463843219144 -28.7487915624412445 6.9862377612762350
277 2.6798057260254677 -2.9649562656770727 7.5051628850014334
278 -0.0877191916333236 6.8008461679003362 -5.3297876138343669
279 -0.3379822321228015 -0.3282076287014195 0.9349726526413035
280 -9.1203140129510523 17.2838884532417119 -9.6485170834196161
281 10.9817786758542351 8.5576774333247201 -14.0286355372713150
282 -0.7626247655445546 4.5878779292865968 18.7728400163871640
283 -5.1941383176899825 -2.7647088753844353 -1.8026517043823707
284 5.3730918393539122 -3.3940440897785598 6.0305320256812491
285 -2.1882630651440462 2.8163306652325404 2.6537889505637544
286 -19.5466627586572486 3.5125565925235960 -29.9968178355234869
287 -11.2318271354019021 -12.3074263283056435 20.7812027675358948
288 4.7184666779432582 4.6934768813812662 6.6425975842951424
289 -1.3427153932223483 -8.1407531507153070 -7.4454300480594586
290 -0.1200049001647661 -1.0741451615314268 2.2561009360767037
291 -1.0797733180055202 0.3510474287788307 -0.2791132095355145
292 14.8732464092486936 -4.6201198265574357 10.5610327274635107
293 2.1420676748314205 -8.6826859920651511 -8.4187243299916403
294 5.3778402576809716 -2.7603182497404117 12.5728017691520932
295 2.2588796213895219 -3.5645456603338239 -3.0266902706749801
296 0.0419088341575556 9.6133134716100930 0.0057011705674554
297 4.6685517745046461 7.4068794073465991 3.0422316723757472
298 11.8315290211983477 12.4021810620052992 3.6354825889583600
299 -16.6458724035630397 -8.7501966261116255 -16.7941006794206906
300 12.8820158154104831 9.9778969427057991 17.8503838941757174
301 -2.9301187287738033 -4.4989974848058267 -2.2124709054247527
302 5.6617328973256402 -1.5196068292398073 1.1266958124578397
303 0.0413391174355686 5.8841778238288001 -4.1476921112860579
304 24.8632576342288623 18.7720360347768036 19.1035070893891401
305 -4.8512622993024301 -14.1403082268474609 6.9179813102807675
306 35.0649414749913859 -8.8789201001864413 10.1128202186718408
307 6.9429920205458817 7.6567061539302408 1.2201693855067446
308 -3.4231252272884438 -12.3008678887399814 2.8368300430980105
309 5.0475537125596501 1.8013144792711209 1.5387654999594866
310 2.3367573434572773 -6.5070108984003241 6.0351866035162924
311 -7.8326669839067433 13.2125677209423653 15.7954181118189538
312 2.5801825797927678 6.1730427004256283 46.6711658917609213
313 3.8313958690887961 3.7078812142813167 -0.3068002945761606
314 2.1075749933134182 -0.7716913492283011 -1.1496001765036143
315 2.1638627689027210 -4.9746104743101345 -2.2283484129033257
316 -4.5499735266351058 10.8659726709456894 9.9731816897279923
317 -5.8100639406042331 28.7129137147045412 -13.1380874491537014
318 26.1456472986963284 6.0378953926188039 21.2256926225432743
319 6.9132548450089359 -0.0156792590652205 7.1782429475866438
320 4.5538197365274993 3.0848889562513433 -2.6705994012866205
321 -0.6628300617895900 -2.7383731279745493 -2.1123473256618066
322 -1.0260256505102376 -35.0003794512082393 -2.2480680746083341
323 28.7957989747746801 -17.8495875406692797 -25.9954734807403689
324 -21.3161619883339277 11.0056249442256640 -6.8299516119092765
325 9.2101786762876756 3.4140742664788726 -0.0236127852279609
326 2.9047105254960237 5.6921858530654861 3.7450184229722905
327 6.7511966202070957 -0.6133708926197170 -0.6825438021791936
328 3.6059742387185407 -15.2526614499021012 6.4998453222504118
329 -16.3251242047724183 -7.4426197353916832 0.2771575174818940
330 8.2956136257067605 -2.2222586552136434 -18.6293283166869550
331 -2.4798919232807606 -8.8805691071386015 6.5963161436137030
332 2.3273093876901925 0.4882574729038309 1.1458758025072489
333 4.5242077089031785 13.5102700417029506 3.0751895935984548
334 5.6215807994945308 -35.8038017365238090 2.5045584832682497
335 -1.4867752621316839 0.0368467824201620 6.1656553683224322
336 -2.9843243687541543 -14.8517870721056351 22.9519367415150732
337 -6.6220589660233591 -7.6334517702731874 2.8526026265810418
338 -2.1583020471493324 -2.8585555339859909 1.1381552292859833
339 -3.9152360856348913 -5.8657605971458189 -1.9767827337768362
340 -4.6437367784461028 -31.2978828065622672 -18.6959248205496387
341 9.4271362653715318 -8.3279062460689435 22.1672394164590436
342 20.4124913015244402 31.2436573001035747 10.9929836786264552
343 4.5845427670237857 -6.3634422734771539 1.7049893200174062
344 -3.0256165959889105 -4.1153946846726228 11.9808602483642961
345 -2.6934984000612192 -7.7234159856876223 6.5157358790927660
346 33.1232070971171098 10.4234622582798657 12.1774525272609306
347 -6.1602869068813639 22.1888407329070532 -17.8939133920785238
348 -4.4819939239823325 4.0719235123535285 -1.2188179381865196
349 -0.7848282716708770 1.0506928561831059 1.3655351200584731
350 2.7142213795995942 7.3182129981268709 3.9447546171342074
351 3.2217052489177007 -0.5368006219439065 -6.5375849143691758
352 1.5228124733512296 -11.1148179195623520 -23.5712790284400455
353 -3.8314576542067580 20.3479543495023592 23.2112331816359863
354 7.0415728866810179 5.7479181933540167 -0.7815925681654697
355 -7.1345257448212260 -6.0971926774307592 2.9287947200281654
356 -0.5314582554061990 -4.2905926263768048 9.7236608930375557
357 -0.2778918489447982 1.9659751449077978 3.2940204530120942
358 13.7383455197058382 -6.2577953618160995 4.2361302312813960
359 10.9763742093316843 -7.5737315435346630 8.9807707793985649
360 -0.5912140457737843 -7.3904973760236850 -16.0198712708021702
361 6.2545930487038097 3.3991241286342571 -7.4543954495190654
362 -4.8349971056357113 0.1064015753261540 -6.3656001586382089
363 2.0012753877818894 -2.6323169668151571 -3.4992865811421749
364 17.0523848643116018 2.7361658722119242 -20.2605181663497191
365 -10.2955639846537110 9.1201416049455428 -14.4509029166873830
366 7.3757596397241318 -3.3809132350218407 -29.7443530811207495
367 -5.0536044648030991 4.4923308907187351 -1.2459310193087829
368 5.0995700947698923 -7.3345621537471013 1.0324082497922582
369 2.5769048751986925 -3.5421460998511192 -3.8549794200150376
370 -35.8239132159211309 7.9463196579675488 -15.0335210098322847
371 -44.0614248035211702 7.0912306130096674 9.6311632645555800
372 7.3535087786272042 -10.0273770231048349 -22.1213799025638167
373 7.7514931067614725 4.8167600562677686 -0.1647163320030129
374 0.4496673024354188 -2.9033875587774935 -7.2654044207915121
375 -6.9203742254624370 -3.0995249093665103 3.2811236755738458
376 19.8940234973748211 -0.5510534945672231 -11.3600980689355602
377 -6.8131963335878094 -6.3111931897341069 3.4848211109214127
378 14.2115742197226833 -23.9987856116799492 7.4977411602749617
379 -0.1785884254623078 4.1078344176956927 -0.9506966647505667
380 -7.5816108809493805 -0.7370743173065558 3.0825560740352902
381 -2.0295959954857596 -5.6083637459082158 1.0980641693652275
382 6.6206619349181928 -18.0957051216742393 -10.3919273082373866
383 -2.1844373149843763 10.2208414162109396 0.6027934980959533
384 28.2125789215803131 3.4881981388228733 -13.9538436156342076
385 11.4963306322362726 -7.1546261508125495 9.7026390073523565
386 0.1508885740068636 -4.3005759238403902 -2.1881805769630036
387 -5.6446749771289086 0.0511269530479212 -5.6932610898679608
388 -28.9976912760220884 3.6533959567578180 -27.1740446502179012
389 13.4208497862786462 -6.7952140480850769 3.5930080266708671
390 -40.4940001266924909 6.7747649260496043 -12.1084800452208299
391 2.1489052029206714 -2.9321889910782430 -1.1210709029759485
392 3.0843869804722392 0.0022390189598631 -4.5259393314345360
393 2.1198878929212470 7.3341868126231393 7.9400810293619193
394 5.3516121113137416 -0.9092360846083589 9.3039137084953190
395 10.0565064381572249 8.3729941714098803 -41.7734265107188065
396 11.7064751493227117 8.4353841831433165 32.4886170538300831
397 -2.6214629866711694 -0.4881962962727418 0.4651353039081430
398 0.7666925454932995 12.4486360247128296 -0.8764246237929812
399 -2.4177756282515581 -0.7709162051159565 -2.5892844090235689
400 4.9802351189027574 14.5046899120301145 10.7945826688253916
401 1.3350491275295016 2.7895645927138979 20.5382574106802274
402 -2.0643486563151336 17.8075121194337207 19.4792011903720024
403 10.8506399427822000 3.1524961532649241 -6.8752283107284589
404 -6.0831133464542093 -0.4400678410871167 -1.4454473122090659
405 5.6298222007532681 -2.0823497226062813 -10.5776919994156735
406 1.7865084071633757 0.5948355965568080 17.8684102808861809
407 7.7505407726572519 9.6516856320157824 19.1997374923003825
408 -16.3499443974362784 -11.9182945501184907 -19.3669625245155288
409 -9.6799726527508696 -1.2214965233170876 -1.9381561286339670
410 2.9957975003672073 -1.9644976635949418 -1.8242001231929881
411 -5.4407934183935209 6.0227417685582427 -0.0379771948388096
412 -2.3861192656477885 10.7817700678883472 10.2023864899868109
413 -13.8704477801662911 -6.5583625850700189 13.8728252310891449
414 -14.0874597832827053 -1.8997498742685501 7.0099774174763381
415 6.4218054630057306 2.1274130888406382 -7.5538694085474924
416 8.4839942402659450 -5.9957199366780953 3.9599494814703400
417 4.2426983422495370 2.4285225765292138 -7.8912682272269805
418 17.5580960965306794 -6.3459970366639880 -32.0020291598762157
419 12.1736460000578290 1.7587737794841654 9.1194178472489185
420 -2.2710863451272840 -3.7952850450426725 13.3685923398357662
421 -0.8219161287323649 1.9514962203530595 4.9702644681095283
422 2.0371184449041211 -2.1087426082428893 -0.9159511374972531
423 -6.6817100525007360 5.6011822482441342 -1.8358813159426211
424 19.9263835247105767 -7.5681213916011814 5.4702445089262230
425 18.3737735912435589 7.5810671338754938 -14.6862511092349823
426 4.3117103335412486 7.1878258008563316 4.3338061427124108
427 3.3526599428381396 0.9636177909990075 -0.3998278758520594
428 1.2788831868938944 -8.8079035168314785 -1.2640716275850692
429 3.9954060121390595 6.0909460175303423 -0.8812885643557654
430 -30.0627004023184163 -6.7310784400834018 4.4767418866432864
431 -0.6817379468857960 2.7207049994964723 -15.8815534266942233
432 -7.8658447182571596 -0.1084637323722763 -3.8157498360759496
433 5.0861190009961241 1.2254379951387400 -1.2129158424565811
434 -3.0528842052640153 0.5540351896966299 -2.9777638382479164

Bonds

1 2 93 94
2 2 93 95
3 2 93 96
4 3 93 97
5 4 97 98
6 2 369 370
7 2 369 371
8 2 369 372
9 3 369 373
10 2 243 244
11 2 243 245
12 2 243 246
13 3 243 247
14 4 385 386
15 4 325 326
16 2 321 322
17 2 321 323
18 2 321 324
19 3 321 325
20 4 127 128
21 2 123 124
22 2 123 125
23 2 123 126
24 3 123 127
25 2 153 154
26 2 153 155
27 2 153 156
28 3 153 157
29 4 157 158
30 2 381 382
31 2 381 383
32 2 381 384
33 3 381 385
34 4 115 116
35 2 255 256
36 2 255 257
37 2 255 258
38 3 255 259
39 4 85 86
40 2 81 82
41 2 81 83
42 2 81 84
43 3 81 85
44 4 211 212
45 2 207 208
46 2 207 209
47 2 207 210
48 3 207 211
49 4 259 260
50 4 145 146
51 4 31 32
52 4 313 314
53 2 309 310
54 2 309 311
55 2 309 312
56 3 309 313
57 4 433 434
58 2 429 430
59 2 429 431
60 2 429 432
61 3 429 433
62 4 307 308
63 4 373 374
64 2 159 160
65 2 159 161
66 2 159 162
67 3 159 163
68 4 367 368
69 2 363 364
70 2 363 365
71 2 363 366
72 3 363 367
73 4 181 182
74 4 193 194
75 4 151 152
76 2 285 286
77 2 285 287
78 2 285 288
79 3 285 289
80 2 147 148
81 2 147 149
82 2 147 150
83 3 147 151
84 4 187 188
85 2 183 184
86 2 183 185
87 2 183 186
88 3 183 187
89 2 75 76
90 2 75 77
91 2 75 78
92 3 75 79
93 4 79 80
94 4 289 290
95 2 3 4
96 2 3 5
97 2 3 6
98 3 3 7
99 2 351 352
100 2 351 353
101 2 351 354
102 3 351 355
103 4 355 356
104 2 9 10
105 2 9 11
106 2 9 12
107 3 9 13
108 4 13 14
109 4 7 8
110 2 339 340
111 2 339 341
112 2 339 342
113 3 339 343
114 2 249 250
115 2 249 251
116 2 249 252
117 3 249 253
118 4 253 254
119 2 189 190
120 2 189 191
121 2 189 192
122 3 189 193
123 4 343 344
124 2 315 316
125 2 315 317
126 2 315 318
127 3 315 319
128 2 141 142
129 2 141 143
130 2 141 144
131 3 141 145
132 2 177 178
133 2 177 179
134 2 177 180
135 3 177 181
136 2 303 304
137 2 303 305
138 2 303 306
139 3 303 307
140 2 327 328
141 2 327 329
142 2 327 330
143 3 327 331
144 4 331 332
145 2 273 274
146 2 273 275
147 2 273 276
148 3 273 277
149 4 277 278
150 4 139 140
151 4 163 164
152 4 391 392
153 2 387 388
154 2 387 389
155 2 387 390
156 3 387 391
157 2 21 22
158 2 21 23
159 2 21 24
160 3 21 25
161 4 25 26
162 4 133 134
163 2 129 130
164 2 129 131
165 2 129 132
166 3 129 133
167 2 201 202
168 2 201 203
169 2 201 204
170 3 201 205
171 4 205 206
172 4 403 404
173 4 427 428
174 2 423 424
175 2 423 425
176 2 423 426
177 3 423 427
178 2 297 298
179 2 297 299
180 2 297 300
181 3 297 301
182 2 345 346
183 2 345 347
184 2 345 348
185 3 345 349
186 4 349 350
187 2 399 400
188 2 399 401
189 2 399 402
190 3 399 403
191 4 319 320
192 4 397 398
193 2 393 394
194 2 393 395
195 2 393 396
196 3 393 397
197 4 301 302
198 2 63 64
199 2 63 65
200 2 63 66
201 3 63 67
202 4 67 68
203 4 235 236
204 2 231 232
205 2 231 233
206 2 231 234
207 3 231 235
208 4 241 242
209 2 39 40
210 2 39 41
211 2 39 42
212 3 39 43
213 4 43 44
214 4 265 266
215 2 135 136
216 2 135 137
217 2 135 138
218 3 135 139
219 4 217 218
220 2 213 214
221 2 213 215
222 2 213 216
223 3 213 217
224 2 225 226
225 2 225 227
226 2 225 228
227 3 225 229
228 4 415 416
229 4 199 200
230 2 405 406
231 2 405 407
232 2 405 408
233 3 405 409
234 4 409 410
235 4 295 296
236 4 229 230
237 2 411 412
238 2 411 413
239 2 411 414
240 3 411 415
241 2 279 280
242 2 279 281
243 2 279 282
244 3 279 283
245 4 175 176
246 2 171 172
247 2 171 173
248 2 171 174
249 3 171 175
250 2 57 58
251 2 57 59
252 2 57 60
253 3 57 61
254 2 33 34
255 2 33 35
256 2 33 36
257 3 33 37
258 4 37 38
259 4 283 284
260 4 61 62
261 2 333 334
262 2 333 335
263 2 333 336
264 3 333 337
265 4 337 338
266 4 109 110
267 2 105 106
268 2 105 107
269 2 105 108
270 3 105 109
271 2 117 118
272 2 117 119
273 2 117 120
274 3 117 121
275 4 121 122
276 2 237 238
277 2 237 239
278 2 237 240
279 3 237 241
280 4 103 104
281 1 1 2
282 2 261 262
283 2 261 263
284 2 261 264
285 3 261 265
286 4 247 248
287 4 169 170
288 2 165 166
289 2 165 167
290 2 165 168
291 3 165 169
292 2 291 292
293 2 291 293
294 2 291 294
295 3 291 295
296 2 99 100
297 2 99 101
298 2 99 102
299 3 99 103
300 4 91 92
301 2 195 196
302 2 195 197
303 2 195 198
304 3 195 199
305 2 111 112
306 2 111 113
307 2 111 114
308 3 111 115
309 2 87 88
310 2 87 89
311 2 87 90
312 3 87 91
313 2 219 220
314 2 219 221
315 2 219 222
316 3 219 223
317 2 15 16
318 2 15 17
319 2 15 18
320 3 15 19
321 4 19 20
322 4 379 380
323 2 375 376
324 2 375 377
325 2 375 378
326 3 375 379
327 4 361 362
328 2 357 358
329 2 357 359
330 2 357 360
331 3 357 361
332 4 271 272
333 2 267 268
334 2 267 269
335 2 267 270
336 3 267 271
337 2 27 28
338 2 27 29
339 2 27 30
340 3 27 31
341 4 223 224
342 2 51 52
343 2 51 53
344 2 51 54
345 3 51 55
346 4 55 56
347 2 45 46
348 2 45 47
349 2 45 48
350 3 45 49
351 4 49 50
352 4 421 422
353 2 417 418
354 2 417 419
355 2 417 420
356 3 417 421
357 4 73 74
358 2 69 70
359 2 69 71
360 2 69 72
361 3 69 73
