LAMMPS data file

434 atoms
4 atom types
361 bonds
4 bond types

0 16.193488 xlo xhi
0 16.193488 ylo yhi
0 16.193488 zlo zhi

Masses

1 18.9984
2 1.0079
3 12.0107
4 14.0067

Bond Coeffs

1 0 0.9835
2 0 1.0955
3 0 1.4385
4 0 1.1655

Atoms

1 1 1 6.511699425763003 0.43307456282817636 15.954385651234832 1 1 0
2 1 2 7.3560497556736735 0.6556382033150102 0.24733662811678928 1 1 1
3 2 3 13.48195452065524 11.76967229258643 14.371054532698098 1 1 1
4 2 2 14.345584031002431 11.059427087368356 14.198377832965319 1 1 1
5 2 2 13.711933510070809 12.447521719887263 15.156075975290483 1 1 1
6 2 2 13.251551933389143 12.385815016274437 13.451304641467802 1 1 1
7 2 3 12.450751628594565 10.961428028611094 14.88237737196414 1 1 1
8 2 4 11.635491347825663 10.378627638626893 15.508215270605174 1 1 1
9 3 3 0.7538494135841696 12.756967174515324 14.958773888329278 2 0 1
10 3 2 0.5912281403931448 12.685003746187522 16.004755803074566 2 0 1
11 3 2 0.08100617725800592 13.511916277107712 14.546930977006621 2 0 1
12 3 2 1.7574304867464368 13.111507494531429 14.744173456679187 2 0 1
13 3 3 0.433740682483625 11.416916999927023 14.464391244683867 2 0 1
14 3 4 0.21584958733037402 10.273713025654924 14.304416202591854 2 0 1
15 4 3 13.298681481559731 4.300414869480582 3.1806224812167536 0 1 2
16 4 2 13.465677761549752 4.28527326244149 2.0661279127215835 0 1 2
17 4 2 14.296841134096265 4.300617978418063 3.7193973428760536 0 1 2
18 4 2 12.734848682870771 5.212964144406278 3.3674873096472693 0 1 2
19 4 3 12.687341182272203 3.0983240042547546 3.514001394729207 0 1 2
20 4 4 12.164654299446122 2.1389619023021273 3.8502258081262415 0 1 2
21 5 3 12.076730076657508 10.50807997637922 4.921554801640523 0 1 1
22 5 2 11.45000342260471 9.641748679801667 5.167949856867104 0 1 1
23 5 2 13.064447977155032 10.303609302735909 4.420115925927431 0 1 1
24 5 2 11.427586324984485 11.108718947633236 4.228352010738496 0 1 1
25 5 3 12.156609566742073 11.345145225390137 6.064975828084107 0 1 1
26 5 4 12.166990022467793 12.094374809282124 6.969369919775479 0 1 1
27 6 3 10.190316643501262 12.352104482045739 1.082413702330852 1 2 2
28 6 2 9.83602762756661 13.417863310944117 0.8876956651613945 1 2 2
29 6 2 10.175466773168749 11.869202314686758 0.056602883661254655 1 2 2
30 6 2 11.276462377406204 12.306553049331134 1.3020705204924343 1 2 2
31 6 3 9.491095418152542 11.545663235191904 2.0650487402633084 1 2 2
32 6 4 8.814439371494522 10.947611569035749 2.803964072162586 1 2 2
33 7 3 15.6706106650165 6.81339609729489 4.246198375765762 0 1 1
34 7 2 15.103776044382878 6.139789754397112 4.962398336598431 0 1 1
35 7 2 0.09319457185510291 6.067149317560754 3.686363819757575 1 1 1
36 7 2 14.975983355311262 7.295890482009534 3.54617742831153 0 1 1
37 7 3 0.3573602945746095 7.729019341509256 4.865290422235315 1 1 1
38 7 4 1.1589275707460895 8.503848709536166 5.2082196505144625 1 1 1
39 8 3 9.52050173313732 0.04630617190408725 13.462355249450756 1 1 1
40 8 2 8.841918814651612 15.964249909385208 12.701899866423704 1 0 1
41 8 2 10.577733987226381 0.0025554441159454334 13.134490054276837 1 1 1
42 8 2 9.314547651904558 1.0724948104090353 13.821471240408924 1 1 1
43 8 3 9.354587828643782 15.303864732384033 14.603622832136224 1 0 1
44 8 4 9.069688563877365 14.674007947799854 15.511550637090016 1 0 1
45 9 3 10.99387980271186 5.849228529084646 6.234090303430757 0 1 2
46 9 2 11.488082092487929 6.419981661737144 7.072718548429742 0 1 2
47 9 2 11.775579763417845 5.33966297502382 5.655518445433297 0 1 2
48 9 2 10.179145425819856 5.113604178238141 6.54639983259224 0 1 2
49 9 3 10.373071160296428 6.785961415476305 5.348749532516461 0 1 2
50 9 4 9.71586701105904 7.478008190225163 4.727259501493474 0 1 2
51 10 3 13.763039461342549 8.593999212798819 6.543783370305887 0 1 1
52 10 2 12.875911118979543 9.122425865506502 6.90919762891734 0 1 1
53 10 2 13.436534209499108 8.021822667766235 5.716955951584553 0 1 1
54 10 2 14.415777496591202 9.422485317616157 6.314991807173172 0 1 1
55 10 3 14.231185762194318 7.650311059467564 7.51633758876797 0 1 1
56 10 4 14.613813423420545 6.880536614412211 8.351743951972662 0 1 1
57 11 3 14.405507369750076 11.392654455204633 1.4735342432850727 0 0 2
58 11 2 14.36148170141157 12.409198094124447 1.0877779230900189 0 0 2
59 11 2 13.317100394779919 11.0906471410234 1.519765553627715 0 0 2
60 11 2 14.881121459749446 10.753816008793237 0.8285844934239782 0 0 2
61 11 3 15.050625826114942 11.325586317487767 2.734632070041797 0 0 2
62 11 4 15.643425815019171 11.176131970663578 3.7213467561394085 0 0 2
63 12 3 1.4093580750278047 11.991206069082311 11.1579162632137 1 0 1
64 12 2 2.0320548405779664 11.10978068874028 10.98956306949096 1 0 1
65 12 2 0.41784589166556596 11.703873330947925 11.523431504059838 1 0 1
66 12 2 1.9663584728810555 12.665054090877716 11.846050911520853 1 0 1
67 12 3 1.097185334228383 12.844381627614595 10.025451517898453 1 0 1
68 12 4 0.6699747554946286 13.35009545100335 9.07564449756191 1 0 1
69 13 3 8.675368925397247 6.850825922670095 8.37514064537021 1 0 1
70 13 2 9.611326005572076 7.399609865143588 8.237231069123087 1 0 1
71 13 2 8.886572582138943 5.811434751260306 8.349269113466836 1 0 1
72 13 2 8.377048149399092 7.053638768841813 9.392625464200963 1 0 1
73 13 3 7.678775807196925 7.121160193417078 7.365571438037745 1 0 1
74 13 4 7.029137226773096 7.359082410102499 6.454854580378105 1 0 1
75 14 3 0.9991529962591857 8.99440409028017 8.496119728487502 1 0 1
76 14 2 1.0855309525393175 9.154488407948698 7.4325860400409 1 0 1
77 14 2 1.3824048705634846 9.875163274347576 9.053385396893722 1 0 1
78 14 2 16.173037284517232 8.768388588604214 8.78076994483042 0 0 1
79 14 3 1.8483655913451018 7.858655747253711 8.805835877208558 1 0 1
80 14 4 2.4070732014542067 6.8687429632989865 9.046410457517316 1 0 1
81 15 3 15.718171001676195 11.687510884335987 6.722275840183065 0 1 2
82 15 2 15.964995346013396 10.948776128436055 5.992258621185003 0 1 2
83 15 2 14.77212300805981 11.45667462483176 7.24839084900244 0 1 2
84 15 2 0.305810719093499 11.825596532969502 7.515006670284556 1 1 2
85 15 3 15.473119931062513 12.938469007263976 6.041362066908335 0 1 2
86 15 4 15.358757942749758 13.940551167400695 5.53315415820513 0 1 2
87 16 3 1.7140290160816007 9.830440892625928 2.011711813704892 1 0 2
88 16 2 2.2511500955786783 9.320876642721942 2.829998142752952 1 0 2
89 16 2 1.2872232110300827 10.7183945633333 2.430101794590699 1 0 2
90 16 2 2.429041100124094 10.052812097743208 1.2209341667300786 1 0 2
91 16 3 0.6624764385197167 8.99329517387393 1.5434885635753575 1 0 2
92 16 4 16.07952842877206 8.120449518755054 1.4481198802476676 0 0 2
93 17 3 7.066720472045528 10.350659278243302 11.687561419132592 0 1 1
94 17 2 6.833329926701527 10.378249125126667 12.799623185893315 0 1 1
95 17 2 6.155832628376465 10.120581287484999 11.152997973830985 0 1 1
96 17 2 7.5185652582875955 11.29931522923596 11.42654259144324 0 1 1
97 17 3 8.103140586269923 9.36633174856959 11.33861067516086 0 1 1
98 17 4 8.86343841617211 8.52660950515437 11.104237339316532 0 1 1
99 18 3 14.46695924478358 15.210825005245557 9.203347816857113 0 0 1
100 18 2 14.925115118238189 14.280108950848145 8.83860127638652 0 0 1
101 18 2 14.311354774392973 15.02833918721827 10.306081052738618 0 0 1
102 18 2 15.133168941757328 16.065817057486775 9.037401428003836 0 0 1
103 18 3 13.216003895928583 15.364215351214389 8.612846047413168 0 0 1
104 18 4 12.19637258668662 15.610642354192708 8.086670485211576 0 0 1
105 19 3 13.259951166381907 12.461297288297034 10.007182836071213 -1 1 2
106 19 2 12.688739485192173 12.963953188454246 9.213669248997466 -1 1 2
107 19 2 14.294777519055792 12.837867085978274 9.970898121924218 -1 1 2
108 19 2 12.968249195663176 12.734871187649214 11.023739257569972 -1 1 2
109 19 3 13.256774937611594 10.990236476498865 9.739001721949572 -1 1 2
110 19 4 13.443757019111116 9.847905030679092 9.504844369818038 -1 1 2
111 20 3 5.017931863874657 2.3831231866032696 1.1710328672188428 1 2 2
112 20 2 4.3788834434410004 1.5330624480243107 0.9400466572834343 1 2 2
113 20 2 5.234837109072946 2.500081836154944 2.189466571222657 1 2 2
114 20 2 5.9206102958400715 2.307370210725573 0.5303388913852382 1 2 2
115 20 3 4.326805830145109 3.5719800467484975 0.8492434664707466 1 2 2
116 20 4 3.6312028249402934 4.441294006555939 0.6037977251028765 1 2 2
117 21 3 14.414827654052663 4.28273205635178 10.157903348674107 0 1 2
118 21 2 14.957888187799643 4.514300779910977 11.040133570345402 0 1 2
119 21 2 13.372690710026037 4.001515679148217 10.237205325162451 0 1 2
120 21 2 14.637941205595357 5.10511633167939 9.437900761661545 0 1 2
121 21 3 15.035504161562487 2.9898849530284037 9.690900360319624 0 1 2
122 21 4 15.67621457063853 2.1434697893798047 9.23786400618781 0 1 2
123 22 3 5.587919710760293 15.73623317532752 12.108089956657103 1 0 1
124 22 2 5.086174929604886 0.3427073215356413 11.491095251030213 1 1 1
125 22 2 6.204982961604538 15.066062195082432 11.407368975906634 1 0 1
126 22 2 6.215317832673603 0.055396030615899726 12.810226357869487 1 1 1
127 22 3 4.566978138155032 14.885786307614724 12.613396334265179 1 0 1
128 22 4 3.8049362401743934 14.141463056086584 13.051220125819249 1 0 1
129 23 3 0.2094654236044774 4.04202151686177 1.631223174870031 2 1 1
130 23 2 0.37901860939396315 3.5352478112746786 2.589324039159611 2 1 1
131 23 2 15.863650034181267 5.02200628572187 1.6796519345134882 1 1 1
132 23 2 1.1691912392372943 4.168347662492611 1.1316471346085948 2 1 1
133 23 3 15.626290436230857 3.0313234340014197 0.9474568843057111 1 1 1
134 23 4 14.898295117168313 2.3066280644938373 0.3716240269761367 1 1 1
135 24 3 9.350679166877766 13.442171598132392 6.921505015524145 1 0 2
136 24 2 8.892365944702288 12.432337247443638 6.95610157616125 1 0 2
137 24 2 8.720176803156264 14.158231643897338 7.484321787721219 1 0 2
138 24 2 10.388776383487519 13.449746928170041 7.355069380284373 1 0 2
139 24 3 9.486880063384184 13.75164272325284 5.5065412982374475 1 0 2
140 24 4 9.593926950822835 13.906727883853453 4.346281114950253 1 0 2
141 25 3 10.354984041063402 3.7955998720411195 12.800274473021865 1 1 1
142 25 2 9.53425129843181 4.071882185480498 12.155021103080841 1 1 1
143 25 2 10.840976948696815 4.707368953414768 13.087281731556484 1 1 1
144 25 2 10.004429011169869 3.2672390954003276 13.656682094175373 1 1 1
145 25 3 11.168896657340762 2.892692350180832 12.023507583885237 1 1 1
146 25 4 11.860570181077675 2.2146456356910655 11.367276644489332 1 1 1
147 26 3 7.246311851454537 7.089822554956879 3.1330881045923564 0 1 2
148 26 2 6.921115938950263 7.784822375106781 2.343892296970504 0 1 2
149 26 2 8.189672419930545 6.565295528306561 3.0142194575780157 0 1 2
150 26 2 7.360540347041381 7.497476017915666 4.1578245140212635 0 1 2
151 26 3 6.224225321625501 6.064419864646009 3.253074852257642 0 1 2
152 26 4 5.510345669727136 5.1500646705043565 3.3475294976957923 0 1 2
153 27 3 3.0119956841145674 2.4102636055576534 3.838221582696883 1 1 2
154 27 2 2.5924445263211373 1.5598883221769382 4.340550457753935 1 1 2
155 27 2 4.0107596481294685 2.4281137091049856 4.156703984985624 1 1 2
156 27 2 2.9365437583909277 2.3265803434790384 2.7647940184219935 1 1 2
157 27 3 2.4260888484693877 3.6594795864863423 4.198393934003906 1 1 2
158 27 4 1.7634309073258396 4.625581469910845 4.431850183461854 1 1 2
159 28 3 1.6308094980508305 15.030153309019965 3.674524223365448 1 -1 2
160 28 2 1.2121092054980798 14.654973612597292 4.59082742042366 1 -1 2
161 28 2 1.2411436957058104 16.05976070874546 3.5712125915542043 1 -1 2
162 28 2 2.672794706793352 14.984055065077357 3.3904227259462405 1 -1 2
163 28 3 0.9136202738598173 14.290298161579784 2.6438076372357293 1 -1 2
164 28 4 0.3201326294327828 13.621457089457547 1.8796564584361113 1 -1 2
165 29 3 10.082833869326477 11.31374557652275 9.684840364522456 0 0 2
166 29 2 10.58875350363061 12.298231331324168 9.584843692603494 0 0 2
167 29 2 10.534558409775611 10.836339673075626 10.628461944035324 0 0 2
168 29 2 9.011755865026997 11.509844630031377 9.835267389395584 0 0 2
169 29 3 10.337864111895378 10.408835005796421 8.6005300284213 0 0 2
170 29 4 10.519401342586235 9.573652350214314 7.797151149145618 0 0 2
171 30 3 7.967730483866657 9.880802409103916 5.528268970612104 0 1 2
172 30 2 7.310620746482454 9.049713362607656 5.228694323959006 0 1 2
173 30 2 9.021048731301303 9.676743194855145 5.578385866505859 0 1 2
174 30 2 7.838070379778731 10.717259104492179 4.6982558113136745 0 1 2
175 30 3 7.535691618655504 10.417706829122794 6.86655673539255 0 1 2
176 30 4 7.170212858073599 10.712034738195237 7.948957500304496 0 1 2
177 31 3 0.3109405402858928 6.546251246976775 11.510930720221257 1 1 2
178 31 2 1.1494801708274058 5.803724343507221 11.350938393770072 1 1 2
179 31 2 15.799663372266199 6.51259271761096 10.661117835773034 0 1 2
180 31 2 16.031040215090513 6.370663282637754 12.485164267867548 0 1 2
181 31 3 0.9887401844023479 7.840000327879074 11.676947767121373 1 1 2
182 31 4 1.394951166993407 8.956077423101124 11.700447525507785 1 1 2
183 32 3 5.486900216376136 1.6718426750951791 7.966915679793812 1 1 2
184 32 2 5.946476732876507 0.975764899369315 7.238734045545735 1 1 2
185 32 2 6.248444679817984 2.1093752659163716 8.584561985436942 1 1 2
186 32 2 4.7374304998372985 2.3290551451544523 7.5569848467941725 1 1 2
187 32 3 4.69314093222924 0.6840728762997847 8.693769206891512 1 1 2
188 32 4 4.015443421047073 15.967830601061355 8.981198436709015 1 0 2
189 33 3 1.3592554977125584 16.16055530262159 10.997795431140261 1 0 1
190 33 2 0.7609075111307866 15.254515008978347 10.846188420117265 1 0 1
191 33 2 2.303389364887526 15.874594635370753 11.483459293815825 1 0 1
192 33 2 1.6876967156133897 0.51381970555889 10.08090318717047 1 1 1
193 33 3 0.7135296468812447 0.8356920546843718 11.9234490534735 1 1 1
194 33 4 0.19605139650649006 1.6290723290636149 12.612802661533825 1 1 1
195 34 3 4.038809508309353 6.345719817282959 6.468029648814273 1 0 2
196 34 2 3.8658233402968003 5.854023197827929 5.512648838518322 1 0 2
197 34 2 5.033328361721127 6.786283383227347 6.3710277574982515 1 0 2
198 34 2 3.263529301411987 7.186767854399138 6.662826892410153 1 0 2
199 34 3 4.115149675290179 5.508202948884262 7.630588998009392 1 0 2
200 34 4 4.310838980511557 4.599039181305866 8.360634604864229 1 0 2
201 35 3 2.108918198583391 3.1888620771088276 14.285420369124674 1 1 1
202 35 2 1.560146952985416 3.125188872646393 15.239012481062446 1 1 1
203 35 2 1.386223254513871 3.245963670402109 13.49567468804522 1 1 1
204 35 2 2.6066206251638167 4.146559653951835 14.245437136040396 1 1 1
205 35 3 2.8371687985497904 2.0096302884916377 13.97848960011669 1 1 1
206 35 4 3.5133143863342773 1.0576143279890633 13.966280079195974 1 1 1
207 36 3 14.15071858665671 15.578647051323664 2.2413448166173033 1 1 2
208 36 2 13.218810065038518 16.19034494673909 2.45929612907354 1 1 2
209 36 2 15.043211002932896 16.18305711906744 2.249106355424964 1 1 2
210 36 2 14.193399028139437 14.839708315644863 2.9635854339620513 1 1 2
211 36 3 13.994751958767187 14.932150652397922 1.0019055518964715 1 1 2
212 36 4 13.874563974948925 14.42059038550163 16.176540994761346 1 1 1
213 37 3 10.7948181778267 15.8119127212001 1.6349445123373996 1 0 1
214 37 2 11.429914710206928 15.588772047642685 0.6939853650562563 1 0 1
215 37 2 10.610279716997793 14.929745120770294 2.2838608639616242 1 0 1
216 37 2 11.312804875275479 0.40294775051604437 2.2140088869383114 1 1 1
217 37 3 9.552245729382102 0.2089197771299191 1.406901647535198 1 1 1
218 37 4 8.459367292240362 0.5444707217302198 1.2280508748591872 1 1 1
219 38 3 6.151340177464647 2.6618379173598004 13.561248079693158 1 1 1
220 38 2 6.63097447179307 2.537608679090797 12.52510993391756 1 1 1
221 38 2 5.412523092723459 3.5139856231296025 13.554673235353334 1 1 1
222 38 2 5.688862988969833 1.7286157945553433 13.827993227546653 1 1 1
223 38 3 7.353915206040192 2.8738316283014944 14.337479835861933 1 1 1
224 38 4 8.32336055612203 2.87131023487193 14.961285994834423 1 1 1
225 39 3 11.525208081835643 3.2059264083241814 0.5052042129634521 1 0 2
226 39 2 11.32171791306133 2.9117262498849232 1.5424654445399975 1 0 2
227 39 2 10.744759870941067 3.8822913998343203 0.09030949373406728 1 0 2
228 39 2 12.457011162927213 3.751464120137374 0.28988404971052306 1 0 2
229 39 3 11.543317506879957 2.0429938202906994 15.835716900323465 1 0 1
230 39 4 11.437319443060037 1.155607093204011 15.122076089112676 1 0 1
231 40 3 6.0804989808202725 13.947622830473263 6.891049272913882 1 1 2
232 40 2 6.6363477259617705 14.76021967949675 6.299030653451884 1 1 2
233 40 2 6.758822584762142 13.601409988007918 7.696076556319651 1 1 2
234 40 2 5.175273348524014 14.438421848887648 7.273973894560092 1 1 2
235 40 3 5.724876621419514 12.912034331641962 5.914206562198746 1 1 2
236 40 4 5.342125748539536 12.248489041828918 5.039799287863901 1 1 2
237 41 3 14.307848521531172 8.715579681163778 12.182314564265122 0 1 2
238 41 2 15.06367143535175 9.502996557401511 12.481193395467043 0 1 2
239 41 2 14.565839436051483 8.507077954510214 11.184113834680362 0 1 2
240 41 2 14.458385025514172 7.883028758430743 12.839627595966146 0 1 2
241 41 3 12.946438338272559 9.187955176201912 12.26650512822165 0 1 2
242 41 4 11.880478769519613 9.677930831194095 12.285264825340125 0 1 2
243 42 3 4.848014118677953 7.181323412568403 11.127954025105394 1 1 1
244 42 2 4.066491168712879 7.917547075804873 11.03785147457876 1 1 1
245 42 2 5.158819559258386 6.792643224180179 10.104769327274257 1 1 1
246 42 2 5.739357562998729 7.708689017894096 11.56469349511427 1 1 1
247 42 3 4.281997401974248 6.149613190082897 11.943281580010611 1 1 1
248 42 4 3.622165002779862 5.5496395678737525 12.68492011313682 1 1 1
249 43 3 0.7980104042511696 4.905383463697489 7.214988316451452 1 1 1
250 43 2 0.8510439548448976 5.92801712023308 7.02738481286988 1 1 1
251 43 2 1.5236552057219037 4.266615452786103 6.735220834368299 1 1 1
252 43 2 0.9975411402561357 4.834522643824932 8.289309116463476 1 1 1
253 43 3 15.650032422395144 4.41345254516296 6.940644016152558 0 1 1
254 43 4 14.514520759267961 4.236093312518549 6.721741095303049 0 1 1
255 44 3 12.379051816958354 14.916250478951321 5.014271554240558 1 1 1
256 44 2 12.880667681936245 14.588730188006673 5.922522025892949 1 1 1
257 44 2 11.376120507988146 15.256547302199866 5.261706450687026 1 1 1
258 44 2 12.874638217445167 15.739325403476876 4.655887991066616 1 1 1
259 44 3 12.458213862960035 13.82226510467732 4.08256838168013 1 1 1
260 44 4 12.575521887726211 13.119922402457178 3.160892837289315 1 1 1
261 45 3 9.64050886471675 1.0737274724777441 4.505525277048269 1 1 2
262 45 2 10.26782504240761 1.9494535805277486 4.77422914565846 1 1 2
263 45 2 8.959005067477186 1.4922753546835557 3.7335085306315463 1 1 2
264 45 2 10.259285320384864 0.3234478751142057 4.054576613580645 1 1 2
265 45 3 8.93033996117593 0.541899430737764 5.59894553996552 1 1 2
266 45 4 8.349162906233136 0.2744682845476793 6.596765680322872 1 1 2
267 46 3 4.000726210779343 10.87132665023745 13.257507017194548 1 1 2
268 46 2 3.125106511887648 10.67518865244124 12.632610865257373 1 1 2
269 46 2 4.7686939813120475 10.136136195960216 12.914552448763489 1 1 2
270 46 2 4.410964938506051 11.888240576592462 13.072195591781584 1 1 2
271 46 3 3.7787067720455587 10.868529922432407 14.59296432014666 1 1 2
272 46 4 3.8466075162337776 10.914387136159498 15.740963836847929 1 1 2
273 47 3 9.668496443018787 16.162028315449238 9.580606376203905 0 0 2
274 47 2 10.536309250860652 0.3982401895939854 9.949722497001554 0 1 2
275 47 2 9.728219766709392 16.09706564056613 8.516424162742007 0 0 2
276 47 2 9.66132699683304 15.084202705725305 9.83280428942162 0 0 2
277 47 3 8.48575813091809 0.6627946409242899 10.122217945614358 0 1 2
278 47 4 7.584843733173255 1.2731490958909355 10.571518333113467 0 1 2
279 48 3 7.443023347712557 9.082771115886363 0.21317163413524562 1 1 2
280 48 2 6.508160038167664 8.505258166936327 0.02649151770534193 1 1 2
281 48 2 7.250464907272876 9.760990303599685 0.997868351368041 1 1 2
282 48 2 8.15343758592631 8.416645593806722 0.6897704570330918 1 1 2
283 48 3 7.924086214739678 9.704128086789355 15.22330117552635 1 1 1
284 48 4 8.22120502473287 10.416358745066052 14.31422728722542 1 1 1
285 49 3 2.446308372433388 11.534901605283306 4.763720181249146 1 0 2
286 49 2 1.6507540787850559 12.176563396939228 4.278953007153582 1 0 2
287 49 2 2.1247636671529304 10.545206378714335 4.741993338369247 1 0 2
288 49 2 3.34313780801289 11.719926485694465 4.097842187931734 1 0 2
289 49 3 2.5475377989882544 11.89422724982688 6.16292799744977 1 0 2
290 49 4 2.5886918235794263 12.014688057924387 7.321688174931111 1 0 2
291 50 3 1.82633707869228 15.61957512140678 6.888372316322414 1 0 2
292 50 2 1.0238108870654417 15.488956551770695 6.1538995414959246 1 0 2
293 50 2 1.6966357053095154 15.093041384704485 7.789593420157922 1 0 2
294 50 2 2.7871745386094635 15.314929419384507 6.505596841994273 1 0 2
295 50 3 1.898200453434406 0.8530811806678059 7.0884838778064765 1 1 2
296 50 4 1.9808073722619095 1.979664370623426 7.275661845908061 1 1 2
297 51 3 6.104052466998795 6.0609024370525715 15.056707373358458 1 1 1
298 51 2 7.24359436256769 5.925245227794602 15.048543017313404 1 1 1
299 51 2 5.695489060841625 5.249986758175549 14.490705010370766 1 1 1
300 51 2 5.608443306277277 6.100126079936594 15.98411064520487 1 1 1
301 51 3 5.768202511389622 7.309079535562876 14.442183171347622 1 1 1
302 51 4 5.5083167381515965 8.370738243109674 14.036837447250042 1 1 1
303 52 3 13.968781195799577 16.042736650464327 13.570336656168356 1 1 2
304 52 2 14.562902602161383 0.41347857758288753 14.297473675433931 1 2 2
305 52 2 13.208892911531944 15.46814047093387 14.0531589812442 1 1 2
306 52 2 13.50484609812622 0.5133827956459941 12.78793837032591 1 2 2
307 52 3 14.844826518766057 15.069954448162896 12.925797745847987 1 1 2
308 52 4 15.493248864924066 14.348571429420188 12.278125642793977 1 1 2
309 53 3 2.9610687750467926 6.644168732946144 2.7615609569544244 1 0 2
310 53 2 3.3476674536823836 6.897194156864499 3.7544882506172073 1 0 2
311 53 2 3.1489818709330493 5.571937272200534 2.7334753875348863 1 0 2
312 53 2 1.929807330731241 6.92885187554958 2.5053765658291804 1 0 2
313 53 3 3.806207947449288 7.293344117202032 1.7057968611617373 1 0 2
314 53 4 4.508705316152257 7.732942192260335 0.9166839027300228 1 0 2
315 54 3 7.274536412259139 4.33343346275927 9.90357444611789 1 1 1
316 54 2 6.294567721504642 4.452258880769352 9.40095017001245 1 1 1
317 54 2 7.309802066662417 3.3041547765572212 10.208243923134553 1 1 1
318 54 2 8.10451361792794 4.481313144663237 9.202498574914289 1 1 1
319 54 3 7.34921847827655 5.120223333685706 11.126622150957411 1 1 1
320 54 4 7.371125583931689 5.472583336061807 12.221963109034546 1 1 1
321 55 3 4.378989381957092 9.620400655531965 7.487991944204746 1 0 2
322 55 2 5.1660226619678955 8.965838438792515 7.5371910359146606 1 0 2
323 55 2 4.636579490490179 10.410252845320706 6.742400922590022 1 0 2
324 55 2 3.536713086608414 9.129357082346699 7.056045147061991 1 0 2
325 55 3 4.077151407699064 10.02297632235686 8.870493677385554 1 0 2
326 55 4 4.131912072669659 10.092677742201841 10.033677079220466 1 0 2
327 56 3 2.3074538949851404 3.793227571862569 10.23746775791425 2 1 1
328 56 2 2.593765845565552 4.854304534817451 10.16138030252108 2 1 1
329 56 2 1.6436453646115452 3.613710726578642 11.049112136288358 2 1 1
330 56 2 1.8725693790077342 3.3748108175243887 9.34707287777915 2 1 1
331 56 3 3.5372653468096975 3.0430290827998574 10.613397748083058 2 1 1
332 56 4 4.400545880039862 2.3229984706427618 10.954937788252868 2 1 1
333 57 3 8.204176833352259 3.8250302302985024 1.9444881495369664 0 1 2
334 57 2 7.149530818760672 4.11982882172456 2.1019593386073674 0 1 2
335 57 2 8.236378660014829 2.760498736043209 1.7311559532725416 0 1 2
336 57 2 8.486476058528684 4.4513209449222915 1.0395963788957618 0 1 2
337 57 3 9.041142253415538 4.144381082276599 3.085704168260281 0 1 2
338 57 4 9.65761259294395 4.414397040251637 4.075990840845993 0 1 2
339 58 3 10.187887217509966 7.547441693163228 13.758290813000087 0 1 1
340 58 2 11.123000279990562 7.05860498182685 13.334177912359294 0 1 1
341 58 2 10.389648622902225 8.582639236408944 13.988706359676447 0 1 1
342 58 2 9.367020223331416 7.388687362068699 13.019184039975608 0 1 1
343 58 3 9.855178716128574 6.650091186530904 14.880633698369278 0 1 1
344 58 4 9.529868294242158 5.861288538587672 15.685698884127161 0 1 1
345 59 3 14.03423465551897 3.647846245047871 13.99958771882616 0 1 1
346 59 2 13.239913650841213 2.930705916061005 14.039759283577993 0 1 1
347 59 2 14.479089197039302 3.988005705392905 14.917135832685258 0 1 1
348 59 2 14.74979612533809 2.9854619268375258 13.52221123133745 0 1 1
349 59 3 13.576839354958382 4.857132301749254 13.365311608719336 0 1 1
350 59 4 13.045767689628969 5.860821539853715 13.150926367524402 0 1 1
351 60 3 6.8049333934758875 12.575312680913568 15.792772678070882 1 0 1
352 60 2 6.727941029914003 13.496779519921954 0.2432642250139448 1 0 2
353 60 2 7.739504437600494 12.038354883579359 16.118054126319617 1 0 1
354 60 2 5.926143181446737 11.834716426979632 15.926875439595731 1 0 1
355 60 3 6.8550824329589775 12.805577850683916 14.400627781492629 1 0 1
356 60 4 6.788578420399375 12.907540156414194 13.218348612408857 1 0 1
357 61 3 11.670374390561836 7.283986840463438 10.25453700309202 0 1 1
358 61 2 12.353369063206534 7.365575559388454 11.076069933018807 0 1 1
359 61 2 10.725217366923163 7.704469464114278 10.515690372847642 0 1 1
360 61 2 11.947095788155888 7.848480330162557 9.371540030638126 0 1 1
361 61 3 11.356366293712291 5.9580373359083945 9.792227074242856 0 1 1
362 61 4 11.077436090122907 4.900584488881767 9.470574771318848 0 1 1
363 62 3 10.838655130902888 7.900377623908481 1.6603380574606308 1 1 2
364 62 2 9.926301083437956 8.070078001052757 2.242439997752132 1 1 2
365 62 2 10.924685782925868 6.905221261004253 1.279068791599481 1 1 2
366 62 2 10.824450659639632 8.684938121002276 0.8907581762778142 1 1 2
367 62 3 12.00747126406264 8.020819453177271 2.5521661682660928 1 1 2
368 62 4 12.922392283921779 8.207980772369089 3.2399804238024053 1 1 2
369 63 3 7.051400097853113 4.136931266912635 6.034111964173686 0 2 2
370 63 2 7.546672582154396 4.995637367732622 5.555865615457581 0 2 2
371 63 2 7.721603092936663 3.6289208009478306 6.761054674193464 0 2 2
372 63 2 6.178814561625397 4.412274845855096 6.616500658113169 0 2 2
373 63 3 6.734969783412654 3.13868106878538 5.038150095773886 0 2 2
374 63 4 6.474336589949571 2.484325920429073 4.130875771967327 0 2 2
375 64 3 13.612367126644614 8.014303850922035 15.733027500577325 0 0 1
376 64 2 13.742058118030407 8.750535951269647 0.3018126272491212 0 0 2
377 64 2 12.65447762377346 8.177646042323907 15.177629730738136 0 0 1
378 64 2 14.390475036680684 8.02377397874073 15.046164363224063 0 0 1
379 64 3 13.483743584934997 6.7017314081543065 0.13836222071301624 0 0 2
380 64 4 13.287694681593242 5.6260726848979505 0.5617343304676057 0 0 2
381 65 3 14.885522332392286 1.1422890597831898 6.049345131336658 1 1 2
382 65 2 13.76076189871509 1.1537063300834987 6.096926435257816 1 1 2
383 65 2 15.241204885213136 1.6818492188240473 6.9834789057829605 1 1 2
384 65 2 15.21010795070728 0.09125879439505567 6.134360979819002 1 1 2
385 65 3 15.389605669948663 1.6514018376534807 4.789042363722834 1 1 2
386 65 4 15.893572455420475 1.9607085900652756 3.777387696665666 1 1 2
387 66 3 4.014366827298385 14.641252193753333 16.100044584197864 1 1 2
388 66 2 3.2707815361053405 14.481633717826718 15.286563686545986 1 1 2
389 66 2 5.0041710322034225 14.393272735539083 15.859898233751109 1 1 2
390 66 2 3.9996659172055495 15.723207414660187 0.06338138624911427 1 1 3
391 66 3 3.7301638438673788 13.889363026753498 1.0249909683780345 1 1 3
392 66 4 3.5452400122403622 13.163123767190985 1.9249011246160772 1 1 3
393 67 3 2.188645749809624 7.881418062032744 14.796048365677994 1 0 2
394 67 2 3.120164485407964 7.429750724648304 15.074242102786291 1 0 2
395 67 2 1.9107974849243583 8.763502654649926 15.423477452909411 1 0 2
396 67 2 2.30215940184289 8.100002630599604 13.733647724366012 1 0 2
397 67 3 1.073618387281311 6.946119126581453 14.885404266897334 1 0 2
398 67 4 0.12888931262430073 6.3110767154637815 15.047335425697613 1 0 2
399 68 3 4.58404519792128 13.101622305263616 9.977422708946488 0 1 1
400 68 2 4.071143390166771 12.417016148257717 10.758097771824737 0 1 1
401 68 2 4.470813270376222 12.576376002031123 8.990978090483377 0 1 1
402 68 2 4.078491144649816 14.124852521795477 9.805779838418665 0 1 1
403 68 3 6.02030847910933 13.266123834918437 10.079950803918154 0 1 1
404 68 4 7.166568141516649 13.5127977624495 10.105158247825853 0 1 1
405 69 3 9.910927487857368 12.591038227495538 13.133948661597284 0 1 2
406 69 2 8.994301881063642 13.15506988888556 13.251813727584056 0 1 2
407 69 2 10.14956748096954 12.141491210240936 14.08274991061389 0 1 2
408 69 2 9.81504210052008 11.766132893585793 12.385882545982984 0 1 2
409 69 3 11.054519161072967 13.35571211216831 12.738108365500652 0 1 2
410 69 4 11.917834326945881 14.078413730995058 12.404297639254562 0 1 2
411 70 3 6.400726275306798 15.371567639606546 3.138566279823332 2 0 1
412 70 2 6.303610908211542 15.795517767218692 2.1405691042070893 2 0 1
413 70 2 6.649870399112473 14.286976921991549 3.020997163214871 2 0 1
414 70 2 7.275025918788497 15.824051510799814 3.604254469877712 2 0 1
415 70 3 5.201730301391452 15.624254828214285 3.9463660221060577 2 0 1
416 70 4 4.227585655003069 16.008477054301558 4.522073141468767 2 0 1
417 71 3 11.596414739144349 2.6182457453758037 7.789609808369033 0 1 1
418 71 2 12.325147252418532 3.4138696484967106 7.542676702202238 0 1 1
419 71 2 11.69079963842222 1.80795510294533 7.0911891289670645 0 1 1
420 71 2 11.80519644310837 2.3012570493820537 8.819039516473703 0 1 1
421 71 3 10.195341647030506 2.916244351847221 7.815321694064412 0 1 1
422 71 4 9.026686340467775 2.951304883873649 7.998135641081964 0 1 1
423 72 3 0.7342669664866776 15.834252052192928 15.735347509538775 1 0 1
424 72 2 1.3711000035703358 15.776494980280797 14.902567931198426 1 0 1
425 72 2 16.108923686759294 0.26831217615690195 15.38285070287979 0 1 1
426 72 2 0.41766410285748273 14.848318589108787 16.14099778284527 1 0 1
427 72 3 1.1897901322610906 0.42561835206131915 0.6226229100072835 1 1 2
428 72 4 1.8326182705246858 1.0549837285341095 1.3527775195535519 1 1 2
429 73 3 5.501078421872822 10.700258110396492 2.4480884825228433 1 0 2
430 73 2 5.159319369091005 11.720453302748531 2.5610885268931702 1 0 2
431 73 2 4.899432342206346 10.424262983986038 1.546741732560675 1 0 2
432 73 2 6.549446807443189 10.664220444563524 2.2962169154571073 1 0 2
433 73 3 5.06731696285882 9.808879755599179 3.5430675139128613 1 0 2
434 73 4 4.812538143178211 9.092392287739921 4.41877427209848 1 0 2

Velocities

1 -3.5489845003021263 0.7503961352153916 -3.8326299944966862
2 -114.7685201596659113 -28.5661373849669964 -67.9073572953682714
3 5.3799749605376119 8.3640047519917449 1.4386975155147741
4 -0.6840398580390262 -5.9582343848093871 -32.1121637495419350
5 8.9265652267381626 -4.2000548768278101 10.4956088041956761
6 -10.8600471853742757 7.7739941349119430 -14.9224652762931278
7 -13.0891337982287030 1.2556081614055097 3.2643546627784645
8 1.3906191170773585 6.1283970619921311 -6.5729043402994609
9 -2.7412613684624660 2.9571250007841710 2.7344215593533190
10 1.6474314398210619 32.3514290837708387 5.2784196507793926
11 8.3193548426541177 -6.2170958543094299 3.8529814751891687
12 -8.3375301765085990 17.4314350014673636 6.7401209701788796
13 14.4961093139448156 -0.2870279793961047 1.6077433772044494
14 0.4197338236382735 -3.3611442770518081 -1.0515865105133142
15 -5.9471879171731477 -0.6256377234610867 3.7209462519557004
16 -31.3083471828472391 12.3760533971188416 -10.5918262722956236
17 2.6932596412816596 0.9151446398492366 5.5744784028545551
18 10.2065702194666965 0.7055012718694758 2.7958597570196497
19 -2.1469725298375835 -4.4449142217749333 -1.8708192139537856
20 -5.1851534404395858 2.5367941551595941 8.6044618631299787
21 7.7971070404743354 -0.2806930667857740 6.2821625651040875
22 -21.0221930152954641 -1.5899021060052421 0.5348435823070814
23 -21.7026838745193302 -7.1751633984129102 -2.1861735082817257
24 1.3682290819734484 11.4981771985592687 -5.4375105262896364
25 2.0655520970246881 -2.1008275384879922 1.3942791189954462
26 2.2694271845317200 -2.7539206675694223 -5.2215373414955781
27 -2.5886910823890421 -5.2662305030046630 1.2063097901593300
28 -23.3348909808135794 -10.9013207682323543 3.2408513890826183
29 -28.7916718338995636 2.3827843094849537 12.3408910596582526
30 6.7285550129236995 -14.7640341428257713 -18.9742602261435565
31 -3.1180550848630864 -0.1950989523326232 -0.4011657091226890
32 5.3971171619278611 2.6148563427795133 0.9487495766183893
33 -8.8101489247873861 3.9786537089310534 -8.4820148110654472
34 16.2564346471250296 -48.3419887461823805 35.4582706084252237
35 -9.8669370598244903 15.6317510655094338 32.1684197447743969
36 5.2651197093006861 -5.1426226761591058 -10.3986211052617676
37 0.6807308608178561 -4.1384328423100554 -2.1272534882021530
38 3.4157538242531689 4.7769928710087637 -4.1520094432578398
39 -7.6638184050437976 -3.3097922020728587 4.0132767814018981
40 43.1841765098216257 16.4248110858539995 2.9090673931893916
41 5.4192029323243780 3.9835563251794284 -22.0839941320170077
42 35.2995476668155135 -21.6256213099410104 33.6716166598003142
43 0.5558588309603981 -1.4074815012070852 -4.5396928639392193
44 -2.4963967094872688 -7.3394761197620220 8.2903622091512315
45 -1.8865218768938925 1.4053162072650320 5.3550887274648664
46 1.4844911489260826 10.5601439169488671 3.5586253693751804
47 4.6521200846526227 -8.2721907076743566 -23.3943724278609579
48 -41.0835679324666927 37.2505684921331905 -6.1884639560228774
49 -2.9096153977211148 9.2466636327385974 -1.8913849713268944
50 0.5853569475634113 5.4515028241312020 2.1450328601447781
51 -2.7449841170592624 -7.9442063717403597 -8.3750574781130460
52 20.4725941943149827 20.6720248830328579 10.0108859255200180
53 5.6795732877953249 1.0874075970888493 7.3088804332208328
54 -7.3641622793212846 13.6839482816138709 16.0716456711523712
55 -10.3182320569410582 -0.4662131833480798 -6.6761457240567230
56 -5.2566364597892745 5.0125885501765612 3.1802282495128313
57 0.6762908628336376 4.6648626528689938 2.7748177577486266
58 3.9800350214506635 17.8562020810069200 -11.9395653141581288
59 -30.4532922173283112 -9.9381493091019824 23.4960177147695255
60 -26.4193632407160273 -10.9825762616231888 -15.4668501844324435
61 0.1757687523530626 5.2897476955655316 -0.7385179548467419
62 -9.9399961802660748 0.4997873621184095 -3.8698205645810932
63 1.1822501874215985 1.5653386530329878 4.4558083358172915
64 2.4338545048604607 -5.3112709700562100 -11.9307598487252040
65 -2.8701903467627323 27.4808281636170939 -6.2520682034490651
66 -5.3231061508275062 15.7642199732877337 25.8579071264985352
67 3.9465441010622202 -3.1320764861041361 -6.9159003503479699
68 -0.9737002443975468 -4.4954643092141211 -1.7232243955399427
69 0.8432259044500335 -4.6605942894943535 0.3953385456568954
70 -1.8380913859821233 12.1203817825559650 2.1407198426882021
71 5.3041213581569640 -3.0573708067090388 -6.0886000960342139
72 -8.4420021736220789 -9.5524712134045036 24.5074098061963568
73 -5.6471635882875795 3.1650873778280912 9.4741831143858892
74 -3.9474936539048291 1.9987662364190442 -6.2655038981475224
75 -6.7612028386749090 2.2325614117988088 -1.4627616779292523
76 -18.8854453604350745 1.9063682704977174 -1.6360299119979198
77 30.0457888802754276 13.3728790381073104 39.6974759808815492
78 5.1086051191090069 6.5418345264618587 0.3269843175700612
79 -1.5596360558780136 -5.1191806641661239 6.0583948628908288
80 3.1326181312083459 3.4652816632863019 2.4904547208874539
81 3.9072351076871863 1.6712808026472568 0.2535536784048295
82 -6.5158100685463953 -35.4861281539783064 -28.9338615305052791
83 -21.4480401813839769 18.1556259881022299 -6.6857298484384629
84 4.6690042741491826 -25.2860115721259220 -30.2960611127388155
85 5.8672789623582888 -12.5360073830637759 -3.9353395809799081
86 0.5372550906672888 1.1626745970780363 1.0787265173129830
87 13.2767356574175697 -0.5346781940793445 6.9623466082022745
88 17.1586666091506785 -5.0070227380133696 -13.7198987923159628
89 7.8151609204739447 -4.0575741011306912 13.7614927158103963
90 9.2380619948823952 -18.2338054465709014 17.8345142056073414
91 -4.4065554003542466 -2.3218826117697398 0.9312590810610503
92 3.5503895780202366 -1.7831540040408134 -2.1030028240337599
93 -2.0330505301287483 -0.6976562596856537 -0.0641481243598618
94 -4.7011236564627925 -4.8277592394801072 -19.9851631470786586
95 5.5188258072751131 -25.0222481397242760 15.0535027826824521
96 -31.9974113783555119 10.8255930004723986 14.8827000299952292
97 -8.2299982269763010 2.3762016795948875 -4.3340141201389581
98 8.5479750034934074 -2.8957094239627263 -8.4753594196665283
99 2.6659159985056062 -4.5819266579119544 -4.7815853918471749
100 12.3004591397163310 -13.9736617223628503 6.8350296394352830
101 12.5232382694442403 6.4926270596055140 1.3592337137065378
102 -5.2861031089977519 -1.3967005300758120 -6.5847075289396440
103 -0.0743403001326528 -5.9117813401920243 -5.3791892416825782
104 2.8693055900610545 3.0332866028531864 3.3198113470662305
105 -4.5385347825767743 8.0555968422695035 4.0143577555668921
106 22.0247036392855193 14.7632346998075867 -33.1569440738485071
107 -23.1573496572041186 14.5205504787842230 12.1781087998629509
108 -28.0615483123315101 -12.9378654365662751 -11.7990439895832360
109 3.7548785598296237 2.5675452823469258 -2.9356406063228691
110 1.0995320359752627 11.7326746940236735 -0.9269875789821866
111 0.6833824186480975 0.9504373527144688 1.8137328077792578
112 -14.4220800649415040 8.8482258159636817 -15.8752216629910805
113 0.9221745030093126 7.7326952669576654 5.4218236759270972
114 3.3476957762609096 -5.3867621238825043 -8.2070559509725793
115 -3.5975764201618960 5.5849293083402616 -0.7168829389246825
116 -2.8709674464239301 -6.0295571789352058 -7.8916500911158840
117 8.5326753991950994 4.5280491223345214 -1.3353583288474220
118 -33.0634620029905264 -26.7262807359453625 8.7067692987315723
119 -7.4355459138353153 -16.3972810228252008 10.7094676064475074
120 1.6079763556937163 -16.4722660110794301 -29.2656913608534346
121 6.0060665769036516 -0.8104430762653398 -0.5462163037413117
122 3.2774389415955030 0.4431218375917886 0.6980968249225477
123 -5.9631699461280627 2.4636959123146918 -0.1522955671019507
124 18.7448349961201686 -0.2875488337780294 17.9895226226569172
125 0.4326990980715779 7.2042525609555543 1.5103893546121394
126 -3.4399743088167636 0.1521684148288155 3.1730795168984396
127 3.4970063888296461 4.1091091826978010 -0.9299553280668100
128 -3.7385778256651712 -4.6422737715706086 -3.8380320012050810
129 -3.4267093378301299 -6.0194357292373706 -3.8085658060702969
130 9.5962726562993232 -27.2754870907147726 -4.9824176042722828
131 6.6700557022391518 22.6256099520000085 -4.8816999840448547
132 -13.4045247100456582 -18.3059841056308841 -8.3075428590283451
133 -4.6425041231301893 4.6775127219060666 -2.0932435909714533
134 -7.6917967728135537 2.0732630921597850 2.4450610089462081
135 -4.3055428721753985 0.3133763176363787 0.2179745466934311
136 -1.2967775337509966 -4.7155499897086575 -17.9772562908054248
137 -10.0594597351270938 7.1261886873755005 -2.0817491687616001
138 -36.4459314249372142 -7.5814229201719936 -14.4247418099742024
139 7.6263959343868439 6.2047413388018837 -9.4062977053891732
140 3.4229906742866012 8.2307762441698102 -0.2393064919052018
141 0.4197334118147777 6.7922637834808652 0.8440463330906065
142 -12.8227507935604468 -13.7285292268975390 -20.5939487873247735
143 0.6504705618206272 25.2508508331402446 12.9518823198874902
144 -1.4446170833176277 10.0316215155452912 11.6457550205062486
145 -2.7818028538100075 -0.6484594636874031 3.6406231972527747
146 6.3919108100258875 -4.7042366275600678 -1.3319668091179500
147 -9.9532933450879089 2.8515380221120097 -5.0761683160616196
148 5.2886250117068627 -29.1846769753772435 25.2414888729592057
149 -9.2347392758576667 16.4346659565094306 33.1354221247363085
150 13.7474354061795001 -4.3970894158692149 24.3453707446148613
151 4.7752018223689641 -3.6197791244537472 -5.8145431544608988
152 -2.0273879947794535 2.8826641369888093 -2.7606713982961906
153 3.3514106663952035 1.6474614836268966 3.3948679830115740
154 12.4437039926127238 -18.1439584645987999 21.7842985822357278
155 9.4458008190511489 39.0036187405655994 11.7891789753112306
156 -28.9622411986983082 -21.0430085609847239 8.7556745670876257
157 -1.0766850917655424 -0.3504440241700866 0.8947480394507790
158 -0.8503226734482184 -3.3967479917058996 -4.4931645184016071
159 6.3686661016229182 0.0340277081385950 -0.5801160771757726
160 -9.8394441405102402 -18.5354114500464995 3.0835273842491664
161 8.8774235915091335 -3.3085486084294056 -31.2353777893037936
162 -13.2341682470380331 -38.0228735899536971 13.9903084330920233
163 2.2925479670355866 1.7268379641059544 -9.7049691292153710
164 -2.9391546298748010 -1.2933484871034824 0.2183115378835431
165 -2.2672001158932633 3.3073503155652175 12.4069405519200533
166 10.3975481498375739 -16.7740229948921638 -2.2992293294987207
167 9.4952382257389178 1.4644389346987083 4.4812503771843746
168 -25.0337321174668759 -4.7469122368997736 2.3813366782908338
169 4.7735719425540886 -1.6644476523976721 -0.9953376510312893
170 1.9267022976027035 2.2014870941104672 -1.2331524545220027
171 3.8260746983402334 1.8720229130463426 -0.0908191846343767
172 2.8494314985531353 -8.9827165116753100 -13.8919195136816835
173 1.7540643891363998 0.2376722477797331 -23.2199386925099809
174 -15.9809292750656073 16.1432382089046023 0.7093464972896032
175 -3.5354075685869710 1.1707476281184981 4.2786742577507821
176 -0.6407076947476136 -3.7243382310028963 7.6126400628818578
177 -1.6086329289329646 2.0565515260452325 -0.7391809280219200
178 5.3037086761928602 -0.7865570679252112 2.4341983536911331
179 -6.9139564271956493 -25.2571173663164075 -20.4032112371685450
180 -2.9356669306392522 -10.4907773618299238 22.9009444448927333
181 -2.6571099734953689 1.0276402151497976 0.7262480700954169
182 2.4873345391567883 -0.4440731033907169 1.3307099692856292
183 16.5039300962961129 0.7648265523465986 1.4537803960723485
184 1.1788505764159094 -5.5747536689562853 15.4538960198531097
185 19.3292896547034836 3.4666135189328307 -2.8671521953225860
186 -14.0974580932875373 -12.0800262405634591 -13.4893788274314250
187 1.1270852046376383 -10.7296254905492088 -0.2759912781946039
188 2.2295865253208489 -4.8042816387183489 3.5373021435704679
189 2.3392243632841754 2.5428564323917229 2.9281829166422386
190 -27.8380279915262250 6.3888768729838619 12.8168590626042693
191 -13.2170905490210622 -9.4467197850899058 -36.0816918591326257
192 -32.4676098340744019 -20.9633586186816920 -11.2527426950198759
193 3.4028498206693070 -7.0767401659614713 1.2021168703322855
194 4.9646100995739175 -4.3813368551842107 4.8771535454682686
195 -0.2054891568334726 1.1779997914315461 0.9102386457939684
196 -3.8315422795325724 -14.6669677582261464 -7.1219259209618748
197 5.9240843519594168 7.1564907210806945 8.8402092950747626
198 -11.8336138160977811 -13.1766234734955070 11.9236972592276125
199 -4.7695846744257464 -1.1344589655813611 7.6497362971544201
200 -3.0878752303669308 1.9913356301375693 8.9958267652411514
201 -0.2486348680697269 9.4494867840470231 6.0902778150378225
202 2.8898512623046955 5.5926602615760377 -26.3137715205769354
203 12.2160336013546154 -0.9498727189668232 -4.7653434473730023
204 8.4281443645448508 -10.8886806070553614 -11.7789428237593761
205 2.4717544513962997 -2.2923121594483664 6.8206484088378705
206 -6.4016405462319801 -0.4903195462509065 -7.5804070783735416
207 15.7977035470712668 1.2435127158437724 -1.6451658231990431
208 5.9223960397424973 5.4886896470554065 -12.9291667304064468
209 16.9375118512418119 -7.2465480360653816 3.7926504271784416
210 -22.6281636169043878 4.6792761489613701 31.3380635518374540
211 6.0158331082113889 5.2167142273281053 0.5828141674874031
212 -0.6947714114480598 2.0399506077981626 0.9266009436913897
213 -5.2216325019062602 3.1287152988364704 -2.6954456574107795
214 2.5860959701821766 20.8458382441043639 1.3749483932047524
215 18.1431224955096511 -2.0595581652942863 -27.4699453501209270
216 -6.3515646591131034 -26.3562663042498109 0.5634980868889086
217 -0.7401798038291201 4.7567004457895257 -1.5172078348603280
218 -0.5794324808686976 2.4660286125394908 5.6549847139472993
219 -0.2321740286526037 -0.6484643766920470 3.0640278301533117
220 6.0625697591052639 6.6877913020883524 -24.0241476061444494
221 -11.6846782523170916 -15.7386245153033411 -29.1454121207209447
222 9.6089496925544431 -3.2376617778983485 47.9193642292225022
223 -0.5053851282728850 -8.2920206295613710 2.6681080726829740
224 -1.3769059974466433 0.2699734225219461 4.3707256707353563
225 0.1790695337985260 0.9450905463024397 -1.8755266969861897
226 10.7522422774554354 20.0317278143974953 -14.7656824184126840
227 -1.5246323712656065 -5.8931144799930646 -3.3666832332876888
228 -20.6186843735707583 4.6484541856690775 -1.6995427022963663
229 5.1848780371909831 -1.0670435006616406 1.4849878501856393
230 -0.6276722771006181 -9.3446035825062275 -4.2552700641114525
231 0.1669442228233686 -1.6873222208923739 4.1651508928866301
232 -16.1028239038951355 25.3942929537675255 18.3335119169870850
233 -9.5837290555309131 14.8011497752456069 -16.4999813541149010
234 3.6985839355718855 -8.1545613109766872 -12.9011355676029051
235 -5.7099143952580373 -2.4329886068298836 -4.5608039861325045
236 -7.5348905756473865 1.9650926509135804 3.5883730466510295
237 4.1930950489539649 -0.2236569955303496 -2.4576940714752444
238 4.7787595594568533 15.1412966236300637 0.5699268988607373
239 30.8393958539766864 1.8762907971892240 -7.8915163380889526
240 -19.5208761236314849 21.4494158102158714 -32.4717962986903643
241 0.0151075707137959 -8.2703432426085861 -1.8438846518263663
242 -3.2622172667067684 -0.4326913334566497 -8.1851635937682854
243 4.0134854328199374 -0.1625536516232120 -2.3451554539457313
244 4.8004139959399073 41.8597182305593378 3.8561507665204275
245 -23.2104063761142108 -12.9023632941707689 -3.9840891597604444
246 -11.7044776296881583 9.5811478158078884 31.6839914975226762
247 5.7550966476010785 -5.1761720223728007 8.0065446496145132
248 -0.1790389843253094 -0.3975008356329280 -3.1638113750877133
249 1.7285137223276337 -1.0066764966757107 -2.4312363697875901
250 9.8920755587646454 2.1423512666540061 -22.0386247470685355
251 8.2844733528224932 -1.2979766869999005 9.4545497679082029
252 -17.2119315061048255 -8.7764773108192546 6.4272446178753206
253 3.9272419244398264 -2.2122484659901800 2.8326547526679948
254 1.3649320816570067 3.1590842452497756 0.1447529541220345
255 0.7026379156791148 -0.4377842217683744 -2.9584880663501965
256 11.4707990391225660 3.7882234915273982 -7.8314162426407314
257 2.3016099162563450 -20.3610685369099400 -36.0007665802960730
258 28.4233947406033813 -14.4642299919870858 10.2850279964603981
259 4.7183335899493732 5.0260585175271055 2.4353531053828386
260 -3.1508569847446553 2.1569672650540617 4.7534825466306305
261 -2.6080352200911046 3.0489782132934229 7.8878044171760600
262 -3.8701907495801158 -14.1916551499273833 33.2428232406475814
263 -5.0075483126730180 -4.3472071719589334 -8.5262197107468616
264 -3.7627108087533458 16.2249729793038426 -8.7295270448236781
265 0.5378867071995094 -0.2451725613252485 6.4752926154999448
266 -1.3002735671371761 -5.8698138098970123 2.4654395503227753
267 -1.6115637167253278 1.1034625044838757 -8.8768554235556305
268 -4.9717486417193957 22.2143922756811918 19.9762585129571839
269 5.8307219265861239 -17.2945333671112067 -6.1666147327565266
270 17.3829781037375817 9.9044470383337213 -18.7024549413892949
271 5.8932769236563551 -6.7466008313269379 3.4429903948360137
272 5.5931508802415264 -9.2761350950626316 -1.1804257342104909
273 12.2051250731190901 1.5859419212310730 1.7460787392524129
274 -5.9385508812472176 -3.1392575028455942 -0.6425479002343999
275 5.3976390462528236 27.7046507328946561 27.1657982689348536
276 11.2596691004200231 7.8481716904746275 -3.6424534638768482
277 10.7741873205172087 -2.3585912200333068 7.6346438858066765
278 -5.3613297844826002 0.8661934677349310 -4.2754849362053680
279 6.1610158264579749 4.4727304115980884 4.6725330400041667
280 17.0238099488750727 12.6512430751278107 -11.8266308539106291
281 6.5181049619583176 3.6172305324907721 -41.6793037676523141
282 -1.9810683105470952 31.7359185293459198 -12.4279256625446006
283 -7.0512926883026958 5.2406217139217999 -4.4419540360771812
284 -4.1797462435964361 -1.3332734667770481 -1.2240658353367464
285 -11.3253859235669232 0.4361487100443856 -1.9461923749154642
286 32.4518476003260616 -7.8742055872433605 -6.1076730997855062
287 15.1250902028416796 -22.1085973466899510 0.5460326267083589
288 12.0786118651362493 -11.0720965923784718 20.7810690854955169
289 -5.0969559795165029 -4.1370839760902909 12.3764458125197994
290 1.7558593510354494 -0.9155475091394822 -1.3329838487413306
291 0.7942236704514219 -1.9263658814057378 -0.2806742680063103
292 -25.9675471506424991 5.6103328606834388 21.2126395759343644
293 -28.1415504461062937 42.4051762801629977 13.5628843893362667
294 19.9053493755443967 3.0688463041251492 46.2213770998036608
295 1.1453039116158805 6.8915810645128648 -4.4200310932362452
296 5.2110564551348428 2.2951883346503128 -5.7191271974931963
297 -3.0297058625921243 4.8530324016189912 9.5812419664250115
298 -9.3896021521828406 -15.5574681618319666 -16.8624218357662023
299 1.0629637978986501 14.7375431559588606 -9.3959673436763484
300 -31.5275069831659351 12.3282586317112344 15.9938032313924872
301 -5.8788195980816464 4.9582838440381973 3.9892702702844702
302 1.9078173728299177 4.0169602828310085 -9.0448230787701096
303 0.7975961453504360 1.3541536235126175 -3.4014000486526652
304 -7.6070847678227311 -2.1184048486442189 -7.8085096173961812
305 -14.7891666784066960 -1.4438849202769393 -13.4800312799901398
306 14.2949990991588436 -14.6869631061820538 8.8591821873942358
307 -1.3678419491350182 1.8603166106145521 -1.3142219504782133
308 -0.1840080621945029 3.7507087229734446 1.0572436815363593
309 -2.1234911090215522 5.4367079557489157 -3.1503197402255498
310 -11.3039165513425566 -19.5537498934247758 -2.0987222642741536
311 25.7398416713045073 0.6968870994290788 24.3537276127428264
312 3.7946354352817426 0.0478122879580454 -3.9043379181609716
313 -2.7893931764587037 0.6948540368466836 -0.4761903082594950
314 -3.3728337806746933 0.9791351387688318 -2.0106124814785864
315 8.8684976670597884 -0.0794305948681912 6.0192717173165562
316 10.3883637094652190 -13.8289245289141789 2.1521182709970019
317 16.2566320808485827 0.8314508656432191 -0.2455564383993105
318 13.4806633893540830 -10.5095169990539095 -9.2629842599894019
319 -6.6439037416854445 4.3587376273951071 0.0988610218941823
320 3.5777952402400692 3.7321643166923044 -11.9507739937924065
321 -8.1495440686615570 -4.4671188855350525 -3.9885996039975327
322 -4.5295779588312692 -2.1210380796456865 -4.0741184437834841
323 -9.6306170529649755 41.1194915566805719 27.6766446698201563
324 11.4454358085929311 3.3179245246933200 -1.1793768593411289
325 1.6274766283229507 5.1342198296989068 -5.4057762520882351
326 -0.7399777759532767 -4.5071215446150630 -1.0305936178436217
327 -4.3611263633842938 10.7540898502524325 5.1305631424314662
328 -0.8943918294664154 -1.8918434228379251 -12.9738914613371730
329 6.2124645167644195 -28.0912583040170425 -10.6689656927770731
330 -1.5592384201364666 8.1665121463245711 -1.1700117439527169
331 1.2719423799717018 -2.7341024662378386 -5.2923808310504787
332 4.6729750586591203 1.3534520300667525 3.5562008515017620
333 3.4907188927653734 -7.2111859803669836 -3.3450285477185866
334 -0.9486488618121939 -20.1064146704993618 2.8143140561142266
335 9.9993554734348287 -15.2555254428461353 11.9209203014467509
336 -0.1647965450711542 1.2885577725956148 -9.9182178446605658
337 2.6328961953779353 -5.8476950402435284 -1.1985090140508297
338 0.3233426380462631 -1.8467702829016512 -5.7384846386476926
339 1.5827729488014821 -1.2144708255654502 -1.3914564079849916
340 -21.5955429760695843 -26.9142194723425661 -7.1646380972124932
341 -4.2597485253565486 9.6550937354566955 3.6245453330702864
342 -3.0756035982734184 18.8106585444964303 7.8877319205945211
343 -3.8234092548074297 -0.0897678576465083 -4.5077770587993351
344 -1.2773197023947487 0.9153966630311602 1.0386438468127770
345 2.3646845043414597 -5.1655827546882884 -2.8624778111837439
346 -5.7133595178981622 1.9478704477384017 -9.2691234667402824
347 17.3097545362741450 31.6570291700889648 -0.0678096796907634
348 -0.2379557797670823 11.4298513872296130 12.0876387775385723
349 -0.5822233025375242 3.3596506468213070 7.3903756419043463
350 -5.7660880939932495 -0.5003773884818480 -3.8803520867513597
351 -0.3587322544547340 1.5749869859615115 1.5248460202117020
352 -19.8051812644027372 -11.9273270109489093 17.1302562976269108
353 6.3914677227451753 1.3417974700118058 17.4769960597880676
354 6.0482068359857912 9.1148650278344370 -4.5274216246186709
355 -2.7319925496846742 2.3916587089281940 -0.4723106040985046
356 3.0658062009636922 6.8889104172348228 -2.5192385752313977
357 3.5690273648954842 -6.3605532252848729 0.2616091876876982
358 4.5600808612249919 -14.5693899947718997 -9.5435604479909326
359 14.3128327776497706 -2.6249998927479834 -22.5626791369907593
360 5.5117438681716520 -6.7347315736657576 -6.6806390552616346
361 8.0401757139712835 -0.8627465733992159 2.7067880470021897
362 2.6829849904301910 -3.0613607164035046 -1.8237344746826503
363 -2.7210869909755409 -0.3132225107762656 6.9414868772547056
364 -28.0659657192486627 21.3003204910349950 -26.4970213725702841
365 6.2196449653118853 -23.6101608204411377 -13.8802451877905959
366 37.9582421740855054 -15.6140743054218465 -8.6060219053451519
367 -2.9782771433764061 -3.0488658445373535 10.9253424379193760
368 5.4298104449622198 -1.8373414703532087 -4.5874413960544533
369 -2.6354630420228573 -0.4163462452349761 -3.2988862560858068
370 6.7838292705252243 10.5569522353379543 -4.6327026068203212
371 -3.4437019345441793 -3.7742188405226869 -15.3727883356508475
372 9.6583419035652280 22.7455712872205851 -0.4197901241753273
373 2.3342812581717727 -5.5924620502959890 -0.5916959713396617
374 -6.8891212111078595 2.7385682100189359 3.3580132655096220
375 10.3380128682197121 -4.8557790738626547 -1.7047787279033846
376 16.6549424791606739 -13.7977785235571613 10.3151811489145615
377 -14.3204853805404184 -14.2860997663048508 20.2158741374302338
378 -16.6127564027221304 -14.5070721872529838 -12.7594078153566350
379 -3.9577847982157706 3.2789627592861694 3.3996885737396605
380 6.6328553328483064 -3.9681249316579734 -0.6006108756462720
381 6.3121489502170123 -6.8568461091934623 3.7622560507832237
382 17.7113189857515643 5.9798410264551753 5.8899639354791198
383 0.8646321092850296 -41.5064666880987474 -11.3076835598899521
384 9.9165385463622435 -34.7080194201197898 2.1521252082217992
385 0.8538219465556228 1.1192558680425766 -0.9577030292325833
386 -4.0971964933176546 -2.6789994626388505 -2.8587702030626132
387 2.3468250009180691 -1.8675134909638993 6.3972548634628890
388 36.0310528973807038 7.1346570314215780 -16.7770650712542313
389 -0.0537884297890586 -5.9195566787230742 -4.8903678694850505
390 3.8486022556681063 7.2047710085263539 17.9893705134892734
391 -2.3714558595658968 -9.7353175002213810 9.1725576340018335
392 5.9925547374280441 -5.1735254126985764 -3.3639105784251893
393 -2.6568260565376085 4.1986724216027884 -0.4759134114062313
394 7.3785765308761153 -14.2569092673087834 9.9038678026121580
395 -31.5556287169128140 3.3373883815285219 12.6597824096259295
396 7.9337340727214656 4.7325435117965409 -10.7505361522128595
397 -3.7930815228260202 -2.8856974515266782 2.9044792135431616
398 -7.0892753310234298 -3.4497002965112351 -1.0381741871143710
399 -2.2401845460033569 7.3700905894828779 5.3341168587724601
400 -24.6119344337344259 25.9327513934923495 0.5474237876395536
401 -50.1832757804301437 -20.4160916430799411 10.6194574196728837
402 6.0037217634759257 0.1504514054817905 3.7924925032449934
403 -7.3003145562442278 0.8137707166901663 0.8805507763999487
404 -5.8051287786166199 2.3261424764981502 -1.8371280618827259
405 6.1509575334066069 -0.1650137910414064 -7.0551335067089331
406 -2.3258243216741454 18.1712605542099119 -4.2159673951462677
407 -21.2204264304786747 -5.7540093888292816 33.9798377828032372
408 -22.8443128378574869 6.2041271492800423 20.1088027493264434
409 -0.0516830903373242 5.6354762829523688 4.1246181077912611
410 -5.8699966444286673 0.4615999896750526 -0.3860908050651830
411 -2.6742202009901059 -5.8207665108566733 1.8944878889364680
412 12.8415163182995311 10.3260318730817513 4.5730243939926885
413 7.9698324458327834 0.1156629144482415 -2.1054978321129023
414 11.6606129091187523 -5.8861354387237954 -9.4298553897180497
415 1.4505879829191910 0.6985505772666378 4.5688756108602684
416 4.2617663116783175 3.1695902205289603 0.8655714548020454
417 4.8171409389037541 0.3016189196353837 3.8948887407190789
418 -1.5327064225975906 5.6466208053014801 0.9547385158259366
419 8.8119630910933662 2.4154997138384404 -31.2529645955764650
420 -3.2556151459586351 11.2613019472661744 17.0339414879549125
421 5.8090845465877790 -0.2713878186126377 -7.8678739897479213
422 2.0641779651895926 1.3730159748401611 -0.0707105991999796
423 -1.8820329893187118 -3.2145568048707593 5.4917808226395808
424 9.0034131382996172 20.3308021696836434 -6.7570641208969029
425 -2.0754309603532723 10.2260235031201869 11.5775743731107941
426 8.7221695713270488 -4.0183949366775398 4.0706976182202688
427 -3.5814705883315527 -4.5013204000725073 -0.4884381508564550
428 -2.4108813586120164 1.1712790193243920 -4.2675783586812441
429 2.5784271154820249 2.2888578906408465 2.2029481003674047
430 -9.0171388618915849 -6.5357398811893983 -8.3796614655875370
431 20.2695294058435280 27.7975912008137698 -4.9986663155879452
432 -16.6739022873904190 -6.4651885672143790 -9.6792942485646432
433 -4.3981655045343944 -5.0693013361075554 -3.6203045837909862
434 3.5519607312123522 0.1192185905212413 1.4061109425864966

Bonds

1 4 427 428
2 4 115 116
3 2 111 112
4 2 111 113
5 2 111 114
6 3 111 115
7 4 217 218
8 2 225 226
9 2 225 227
10 2 225 228
11 3 225 229
12 4 133 134
13 4 19 20
14 2 207 208
15 2 207 209
16 2 207 210
17 3 207 211
18 2 309 310
19 2 309 311
20 2 309 312
21 3 309 313
22 2 129 130
23 2 129 131
24 2 129 132
25 3 129 133
26 4 313 314
27 4 151 152
28 2 147 148
29 2 147 149
30 2 147 150
31 3 147 151
32 2 333 334
33 2 333 335
34 2 333 336
35 3 333 337
36 4 337 338
37 2 363 364
38 2 363 365
39 2 363 366
40 3 363 367
41 4 367 368
42 2 15 16
43 2 15 17
44 2 15 18
45 3 15 19
46 4 91 92
47 2 87 88
48 2 87 89
49 2 87 90
50 3 87 91
51 4 433 434
52 2 429 430
53 2 429 431
54 2 429 432
55 3 429 433
56 2 279 280
57 2 279 281
58 2 279 282
59 3 279 283
60 4 31 32
61 2 57 58
62 2 57 59
63 2 57 60
64 3 57 61
65 4 61 62
66 4 163 164
67 2 159 160
68 2 159 161
69 2 159 162
70 3 159 163
71 4 391 392
72 2 411 412
73 2 411 413
74 2 411 414
75 3 411 415
76 4 415 416
77 2 27 28
78 2 27 29
79 2 27 30
80 3 27 31
81 2 213 214
82 2 213 215
83 2 213 216
84 3 213 217
85 4 211 212
86 2 153 154
87 2 153 155
88 2 153 156
89 3 153 157
90 4 157 158
91 4 295 296
92 4 373 374
93 2 183 184
94 2 183 185
95 2 183 186
96 3 183 187
97 2 369 370
98 2 369 371
99 2 369 372
100 3 369 373
101 2 261 262
102 2 261 263
103 2 261 264
104 3 261 265
105 4 265 266
106 2 417 418
107 2 417 419
108 2 417 420
109 3 417 421
110 4 421 422
111 4 385 386
112 2 381 382
113 2 381 383
114 2 381 384
115 3 381 385
116 2 33 34
117 2 33 35
118 2 33 36
119 3 33 37
120 2 249 250
121 2 249 251
122 2 249 252
123 3 249 253
124 2 195 196
125 2 195 197
126 2 195 198
127 3 195 199
128 4 199 200
129 4 73 74
130 2 45 46
131 2 45 47
132 2 45 48
133 3 45 49
134 4 49 50
135 4 253 254
136 4 55 56
137 4 37 38
138 2 321 322
139 2 321 323
140 2 321 324
141 3 321 325
142 4 175 176
143 2 171 172
144 2 171 173
145 2 171 174
146 3 171 175
147 2 21 22
148 2 21 23
149 2 21 24
150 3 21 25
151 4 25 26
152 2 51 52
153 2 51 53
154 2 51 54
155 3 51 55
156 2 285 286
157 2 285 287
158 2 285 288
159 3 285 289
160 4 289 290
161 2 291 292
162 2 291 293
163 2 291 294
164 3 291 295
165 4 235 236
166 2 231 232
167 2 231 233
168 2 231 234
169 3 231 235
170 2 135 136
171 2 135 137
172 2 135 138
173 3 135 139
174 4 139 140
175 2 81 82
176 2 81 83
177 2 81 84
178 3 81 85
179 2 255 256
180 2 255 257
181 2 255 258
182 3 255 259
183 4 259 260
184 4 85 86
185 4 331 332
186 2 327 328
187 2 327 329
188 2 327 330
189 3 327 331
190 4 193 194
191 4 187 188
192 4 277 278
193 4 145 146
194 2 273 274
195 2 273 275
196 2 273 276
197 3 273 277
198 4 121 122
199 2 177 178
200 2 177 179
201 2 177 180
202 3 177 181
203 4 181 182
204 2 315 316
205 2 315 317
206 2 315 318
207 3 315 319
208 4 247 248
209 2 243 244
210 2 243 245
211 2 243 246
212 3 243 247
213 4 319 320
214 2 69 70
215 2 69 71
216 2 69 72
217 3 69 73
218 4 361 362
219 2 357 358
220 2 357 359
221 2 357 360
222 3 357 361
223 2 117 118
224 2 117 119
225 2 117 120
226 3 117 121
227 2 75 76
228 2 75 77
229 2 75 78
230 3 75 79
231 4 79 80
232 2 63 64
233 2 63 65
234 2 63 66
235 3 63 67
236 4 325 326
237 2 93 94
238 2 93 95
239 2 93 96
240 3 93 97
241 4 97 98
242 4 169 170
243 2 165 166
244 2 165 167
245 2 165 168
246 3 165 169
247 4 109 110
248 2 189 190
249 2 189 191
250 2 189 192
251 3 189 193
252 4 67 68
253 2 399 400
254 2 399 401
255 2 399 402
256 3 399 403
257 4 403 404
258 4 409 410
259 2 105 106
260 2 105 107
261 2 105 108
262 3 105 109
263 2 99 100
264 2 99 101
265 2 99 102
266 3 99 103
267 4 103 104
268 4 205 206
269 2 201 202
270 2 201 203
271 2 201 204
272 3 201 205
273 2 423 424
274 2 423 425
275 2 423 426
276 3 423 427
277 2 219 220
278 2 219 221
279 2 219 222
280 3 219 223
281 4 223 224
282 2 141 142
283 2 141 143
284 2 141 144
285 3 141 145
286 4 229 230
287 2 345 346
288 2 345 347
289 2 345 348
290 3 345 349
291 2 393 394
292 2 393 395
293 2 393 396
294 3 393 397
295 4 397 398
296 2 297 298
297 2 297 299
298 2 297 300
299 3 297 301
300 4 301 302
301 4 343 344
302 2 339 340
303 2 339 341
304 2 339 342
305 3 339 343
306 4 379 380
307 4 349 350
308 4 13 14
309 4 271 272
310 2 267 268
311 2 267 269
312 2 267 270
313 3 267 271
314 4 283 284
315 2 405 406
316 2 405 407
317 2 405 408
318 3 405 409
319 2 237 238
320 2 237 239
321 2 237 240
322 3 237 241
323 4 7 8
324 2 3 4
325 2 3 5
326 2 3 6
327 3 3 7
328 2 375 376
329 2 375 377
330 2 375 378
331 3 375 379
332 4 241 242
333 2 387 388
334 2 387 389
335 2 387 390
336 3 387 391
337 2 9 10
338 2 9 11
339 2 9 12
340 3 9 13
341 2 351 352
342 2 351 353
343 2 351 354
344 3 351 355
345 1 1 2
346 4 127 128
347 4 355 356
348 2 123 124
349 2 123 125
350 2 123 126
351 3 123 127
352 2 39 40
353 2 39 41
354 2 39 42
355 3 39 43
356 4 43 44
357 2 303 304
358 2 303 305
359 2 303 306
360 3 303 307
361 4 307 308
