LAMMPS data file

434 atoms
4 atom types
361 bonds
4 bond types

0 17.439506 xlo xhi
0 15.194166 ylo yhi
0 15.074574 zlo zhi

Masses

1 18.9984
2 1.0079
3 12.0107
4 14.0067

Bond Coeffs

1 0 0.9905
2 0 1.1025
3 0 1.4385
4 0 1.1655

Atoms

1 1 1 13.588004124080294 0.5343284035378766 7.21705242181256 0 0 -1
2 1 2 13.292291407489856 1.49915292611857 7.3435287493426475 0 0 -1
3 2 2 6.631453123896787 9.425900757363705 5.7451791530699845 0 -1 -1
4 2 2 9.721022306123768 12.396371719109021 6.235092410447708 0 -1 -1
5 2 2 8.36189256145522 13.830345348832205 10.018944951465024 0 -1 -1
6 2 2 11.278588964663504 11.768907719898467 9.894505532551172 0 -1 -1
7 2 2 7.921594277377666 15.034642681566801 8.752793218631902 0 -1 -1
8 2 2 10.17002383535086 12.736943259919462 8.863526702859811 0 -1 -1
9 3 2 7.969041078246471 8.6061609091071 4.901010154520897 0 -1 -1
10 3 2 10.712949804836569 11.59263425310383 4.896690800681371 0 -1 -1
11 3 4 7.878445080123227 11.604333445348376 3.8193632636902737 0 -1 -1
12 3 3 7.8071887825149915 10.681424597382657 4.525781084697636 0 -1 -1
13 3 3 7.694511493520976 9.573126990553558 5.412442468985254 0 -1 -1
14 3 2 8.394931509758763 9.76471727895143 6.177341303272841 0 -1 -1
15 4 4 10.365996817757546 14.372622839585599 3.8271479955122945 0 -1 -1
16 4 3 10.425264001676432 13.529120469997382 4.598856118316683 0 -1 -1
17 4 3 10.58801955635549 12.503414423439198 5.528994709329752 0 -1 -1
18 4 2 11.523908891977488 12.655460434206208 6.0666875539703815 0 -1 -1
19 4 4 7.317749725121994 12.205076726422782 7.459144650933139 0 -1 -1
20 4 3 7.410378936834856 13.042308428680935 8.27101553278832 0 -1 -1
21 5 3 7.6630463438602066 14.08982122970577 9.158535886696114 0 -1 -1
22 5 2 6.667164609128998 14.162395647577512 9.771212660237902 0 -1 -1
23 5 4 10.61572397503039 9.83354482044336 7.571857245552022 0 -1 -1
24 5 3 10.378125011102075 10.660938446427705 8.369234121343595 0 -1 -1
25 5 3 10.263434221752826 11.723338082329573 9.343687043339003 0 -1 -1
26 5 2 9.44637877974515 11.51063468808824 9.996758260508795 0 -1 -1
27 6 2 12.188219105335776 9.897496261888636 5.957064020479866 0 -1 -1
28 6 2 16.215705465861436 11.161631255174509 5.049345528342707 0 -1 -1
29 6 2 14.156173767859766 14.062488895556472 10.10078880839995 0 -1 -1
30 6 2 17.38797725684206 11.937614891407827 9.519880493472758 0 -1 -1
31 6 2 13.122758032905024 14.859524564708387 8.8417317217815 0 -1 -1
32 6 2 15.741861896474969 12.43476924795816 9.000805152991633 0 -1 -1
33 7 2 13.282337748465775 8.858457951304068 5.050343367264251 0 -1 -1
34 7 2 17.1453269606973 12.174901676970611 6.246624815849329 0 -1 -1
35 7 4 13.67317753864946 11.656497337897973 3.695329751300611 0 -1 -1
36 7 3 13.441248887290849 10.848418750557224 4.502903652588918 0 -1 -1
37 7 3 13.232675028225541 9.81928482082961 5.515225685503231 0 -1 -1
38 7 2 14.02977651561297 9.964030517070379 6.23195612101307 0 -1 -1
39 8 4 16.53702697858594 14.150031190665352 3.8969642325934886 0 -1 -1
40 8 3 16.370775330766016 13.25518470708162 4.658708794856081 0 -1 -1
41 8 3 16.30996063260507 12.173885538078485 5.616794643541058 0 -1 -1
42 8 2 15.338197985258581 12.23602812271245 6.183603980013624 0 -1 -1
43 8 4 13.598041799133727 12.061761810129633 7.630752439296782 0 -1 -1
44 8 3 13.462432558136294 12.879159702158006 8.477715970982372 0 -1 -1
45 9 3 13.272883244052336 13.97332367098945 9.457881462271349 0 -1 -1
46 9 2 12.31082919179109 13.693836050872132 9.962815712368077 0 -1 -1
47 9 4 16.243507593128278 9.656089734640489 7.597932761543856 0 -1 -1
48 9 3 16.26200954116077 10.513911902964072 8.388016221342987 0 -1 -1
49 9 3 16.376903028900585 11.589217449003051 9.312196358852697 0 -1 -1
50 9 2 15.9417157464579 11.324288618454338 10.276517721561518 0 -1 -1
51 10 2 2.5955995862769368 9.607467985612285 6.046779735901278 1 -1 -1
52 10 2 5.675361884785309 12.575095634043548 5.867047696274554 1 -1 -1
53 10 2 3.0388456238374824 14.142071874243511 9.729595297982176 1 -1 -1
54 10 2 3.7467161320380225 11.1414510690527 9.687833544914731 1 -1 -1
55 10 2 1.8920939632193128 15.043661523327795 8.903696487481485 1 -1 -1
56 10 2 5.449328696257583 11.504686018474787 9.691323133285255 1 -1 -1
57 11 2 0.784773592314196 9.655290530001114 5.903561672356733 1 -1 -1
58 11 2 3.9083237393004744 12.435559296791455 5.792755253477499 1 -1 -1
59 11 4 1.5779314004471214 11.5264527828912 3.637223223988012 1 -1 -1
60 11 3 1.74876879933312 10.704057647894503 4.436514184060738 1 -1 -1
61 11 3 1.7383481930482272 9.56639672140624 5.316258952420426 1 -1 -1
62 11 2 1.7804855938946123 8.582698951917907 4.832772763460016 1 -1 -1
63 12 4 4.479618953823508 14.476741659773195 3.6213085298045136 1 -1 -1
64 12 3 4.768437542537706 13.57339562932145 4.3482672617444935 1 -1 -1
65 12 3 4.809254289497994 12.424822131542882 5.168780032653433 1 -1 -1
66 12 2 4.945750055854579 11.521926874531474 4.547339708120923 1 -1 -1
67 12 4 1.9471736904872659 12.30962556237518 7.349876565332814 1 -1 -1
68 12 3 1.9644550779449954 13.131536194457354 8.179411845902154 1 -1 -1
69 13 3 2.039992031149772 14.059461884735956 9.288188335232151 1 -1 -1
70 13 2 1.2021201605758247 13.876056680367032 9.94515397688789 1 -1 -1
71 13 4 4.795556185292718 9.73329232600181 7.098928731497312 1 -1 -1
72 13 3 4.694353722264988 10.55760562967796 7.922461135551162 1 -1 -1
73 13 3 4.543287638573975 11.486015696500385 9.041448110555146 1 -1 -1
74 13 2 4.472647263881905 12.496835808222494 8.649737970319332 1 -1 -1
75 14 2 7.520390774086531 13.962798268143667 4.930659700802433 0 -1 -1
76 14 2 11.067147547880488 2.3020906978685836 6.0948412297559775 0 0 -1
77 14 2 8.657974637078887 4.128577495628457 9.638042806737662 0 0 -1
78 14 2 11.441022912999868 1.7660214771396632 9.825247503441158 0 0 -1
79 14 2 7.374961669362201 4.935189268608384 8.719508513315636 0 0 -1
80 14 2 9.8506958123614 2.329688571085312 9.106082319417395 0 0 -1
81 15 2 8.138037645965436 15.135312958948637 6.2211625389966025 0 -1 -1
82 15 2 9.463174779136493 2.2762216980107226 5.59436319699351 0 0 -1
83 15 4 7.577820484403574 1.5705400582566447 3.7098986515555494 0 0 -1
84 15 3 7.395728389416147 0.7533200122073938 4.529686478766217 0 0 -1
85 15 3 7.320499334310292 14.915274064904525 5.539075442149192 0 -1 -1
86 15 2 6.355618994983679 14.959259393843977 6.018920386626706 0 -1 -1
87 16 4 10.483850032785147 4.132648598051297 3.4975657327120793 0 0 -1
88 16 3 10.57999012341442 3.293731045517163 4.306703342237624 0 0 -1
89 16 3 10.427125685277764 2.2298508318722243 5.254970957573347 0 0 -1
90 16 2 10.600226989785588 1.314038647003581 4.761035935250285 0 0 -1
91 16 4 7.86456956595165 2.059346905078484 7.422859427337348 0 0 -1
92 16 3 7.726725531275584 2.917453807016018 8.23249374450026 0 0 -1
93 17 3 7.721230854391883 3.9516482446941716 9.173635436448363 0 0 -1
94 17 2 7.07893408887783 3.7900177479324695 10.014577330230473 0 0 -1
95 17 4 10.321948665105054 14.767901359170375 7.713404895988562 0 -1 -1
96 17 3 10.379809180049516 0.4261917580173476 8.488621400880154 0 0 -1
97 17 3 10.42038065273277 1.4470555881356744 9.455566637452767 0 0 -1
98 17 2 9.87786633205393 1.0803268916288118 10.318155694673953 0 0 -1
99 18 2 12.35566099575108 14.665151963635802 5.8405374591366135 0 -1 -1
100 18 2 15.466448280437746 1.7531130457680466 5.993836157879034 0 0 -1
101 18 2 14.655427992575333 3.988544024336617 10.137004417284158 0 0 -1
102 18 2 15.675532017197725 1.1238037414389817 9.992076446752339 0 0 -1
103 18 2 13.717463039219849 5.3040136668716045 9.358105431956169 0 0 -1
104 18 2 17.43359904941146 1.4087579605510123 9.892950679642485 0 0 -1
105 19 2 12.86097210822028 13.51913467894491 4.5528463704320234 0 -1 -1
106 19 2 16.801320639825434 1.2075012299075836 4.923067171219169 0 0 -1
107 19 4 13.546777723868031 1.344386592848936 3.7011932218088988 0 0 -1
108 19 3 13.417156194774972 0.35559438670488347 4.276068533522121 0 0 -1
109 19 3 13.172001504197151 14.40816280924088 5.13102885098859 0 -1 -1
110 19 2 14.154121819390129 14.077015372544677 5.53539097627162 0 -1 -1
111 20 4 16.099493841306277 4.005285909246135 3.8422492725911868 0 0 -1
112 20 3 16.173017050896636 3.1502722871078928 4.654935082635875 0 0 -1
113 20 3 16.417568910561066 2.04819689289654 5.553740883148906 0 0 -1
114 20 2 17.14636737896325 2.3208757781320495 6.324319331723854 0 0 -1
115 20 4 12.899633276003554 2.920776193640032 7.6743315726062 0 0 -1
116 20 3 13.271326964226983 3.4719892204414604 8.621821627783637 0 0 -1
117 21 3 13.648156990509012 4.235982915038291 9.735285579872006 0 0 -1
118 21 2 12.974225555865615 4.143267340209135 10.631487048784923 0 0 -1
119 21 4 16.635664632964183 14.608018813486487 7.629486394949912 0 -1 -1
120 21 3 16.532254671889444 0.3515729678058535 8.332361539317342 0 0 -1
121 21 3 16.458730608026617 1.4038488725960003 9.300499587361129 0 0 -1
122 21 2 16.317862290220727 2.449020041999825 8.835492020189541 0 0 -1
123 22 2 2.8439885469334496 14.760100058018647 5.872160949202568 1 -1 -1
124 22 2 4.771345099643919 1.2971680615458274 4.925619490195958 1 0 -1
125 22 2 1.0102010631294893 3.8627013716234995 9.964921267330306 1 0 -1
126 22 2 5.924152250310732 1.326675948040102 9.840015998207035 1 0 -1
127 22 2 2.7638637982891865 3.894990395351926 9.898328426881376 1 0 -1
128 22 2 5.062344875192112 2.4725555428459733 8.863451483594952 1 0 -1
129 23 2 1.2665506339801131 0.15543229035756845 6.290659030112248 1 0 -1
130 23 2 5.29400015501826 2.5059544993427694 6.059991080539435 1 0 -1
131 23 4 1.6887624319287855 1.5233611466771089 3.5732161895441417 1 0 -1
132 23 3 1.7842889271253977 0.6759614569467378 4.373955309918518 1 0 -1
133 23 3 1.820531305571484 14.916821088996427 5.447307368031256 1 -1 -1
134 23 2 1.3786856695975547 13.90536783720988 5.121364119385845 1 -1 -1
135 24 4 4.664510569295533 4.277725006408889 3.5964481967394826 1 0 -1
136 24 3 4.58457667994125 3.359720675811222 4.359395787983996 1 0 -1
137 24 3 4.592200991848568 2.2897697530168095 5.296311406280661 1 0 -1
138 24 2 3.4908429699881767 2.277759611237368 5.707547103662715 1 0 -1
139 24 4 2.0878214333704177 2.2125833846235325 7.423667416391143 1 0 -1
140 24 3 1.971604173838402 3.054856454688794 8.230666556268812 1 0 -1
141 25 3 1.9141910594688536 4.024020373972801 9.266719662365576 1 0 -1
142 25 2 1.8326321082865176 5.02992848666412 8.903543918330149 1 0 -1
143 25 4 4.51822069384196 14.914973322030125 7.441293893941993 1 -1 -1
144 25 3 4.830311715012793 0.4870696383996486 8.238459377148656 1 0 -1
145 25 3 5.00943190401309 1.4907390458392349 9.276428963615599 1 0 -1
146 25 2 4.081637721627054 1.4209500542588671 9.867266242090134 1 0 -1
147 26 2 8.553492449912707 4.729052631407136 5.691144090333008 0 0 -1
148 26 2 11.677278011643287 7.157082334437162 5.749839964690228 0 0 -1
149 26 2 7.574752099012659 10.124862079324775 8.909875569598038 0 0 -1
150 26 2 11.32087801604032 6.633867457130839 9.9778250524469 0 0 -1
151 26 2 6.57588957221012 8.983364642350928 9.824406438040427 0 0 -1
152 26 2 10.70913757809018 7.819662277757795 8.801848773816692 0 0 -1
153 27 2 6.751884692317209 4.39737811803543 5.897544402661822 0 0 -1
154 27 2 9.99406222036644 7.357356265695107 6.1069773395102445 0 0 -1
155 27 4 7.262130320463091 6.6908761463530135 3.567125165915454 0 0 -1
156 27 3 7.371300459514746 5.7751312285227945 4.319836173849065 0 0 -1
157 27 3 7.584840628116726 4.699636010590375 5.222269911867445 0 0 -1
158 27 2 7.5904666879585125 3.7992989336812117 4.6023130764729325 0 0 -1
159 28 4 10.349076219322507 8.845033175041767 3.4350783585683655 0 0 -1
160 28 3 10.48752308931946 8.025899650967014 4.252974271084533 0 0 -1
161 28 3 10.652763011365378 7.09932710230677 5.271860200168822 0 0 -1
162 28 2 10.476919488050857 6.034941446101268 4.935948006739239 0 0 -1
163 28 4 7.679069905411328 7.189348961449931 7.643186500512296 0 0 -1
164 28 3 7.596423528491077 8.109977766170788 8.334872490944463 0 0 -1
165 29 3 7.534094390086164 9.167651487843955 9.344421077198614 0 0 -1
166 29 2 8.266124637473515 8.845210346034875 10.099724382338163 0 0 -1
167 29 4 10.237200371361203 4.874387913532188 7.621843661012764 0 0 -1
168 29 3 10.374734843175887 5.793288049945439 8.330540004349427 0 0 -1
169 29 3 10.464051008769381 6.8489051978484 9.316137068928015 0 0 -1
170 29 2 9.470527296180837 6.8711436549306555 9.808934032288564 0 0 -1
171 30 2 12.693699598136403 4.705852124291032 6.137725536304982 0 0 -1
172 30 2 15.010660098281802 7.466657600308491 5.63783156244479 0 0 -1
173 30 2 14.50142190690928 8.744379231154928 10.052570405071743 0 0 -1
174 30 2 17.29476707026067 6.580553993501117 9.628768783227562 0 0 -1
175 30 2 13.441491882454118 10.062432522093506 9.228793402136883 0 0 -1
176 30 2 16.20218175325714 7.48015721653562 8.668067228587974 0 0 -1
177 31 2 13.652237250375297 3.6567557114292675 5.075448684217686 0 0 -1
178 31 2 15.765799012150906 6.244475247031879 4.482294672897067 0 0 -1
179 31 4 13.174885183079814 6.3705157309018245 3.650264697669449 0 0 -1
180 31 3 13.35863270822449 5.6415592223509305 4.554413966427641 0 0 -1
181 31 3 13.605870758747113 4.610334902343511 5.568135645859323 0 0 -1
182 31 2 14.461088634076113 4.824539452743796 6.266803104732004 0 0 -1
183 32 4 16.780847358667664 9.178145224335525 3.530050169067586 0 0 -1
184 32 3 16.388674336791723 8.300347667618189 4.198879590154509 0 0 -1
185 32 3 15.944040775731168 7.197136778455952 5.087627752485118 0 0 -1
186 32 2 16.739863439169667 7.022185256148863 5.760758750085326 0 0 -1
187 32 4 13.294289025698902 7.282778361371928 7.565658453517176 0 0 -1
188 32 3 13.328491332069069 8.019748022771457 8.463497060151695 0 0 -1
189 33 3 13.511253101779547 8.96347778314506 9.52403567741944 0 0 -1
190 33 2 12.672732724009395 8.828673665740629 10.2698484254198 0 0 -1
191 33 4 16.308026368328573 4.426676273197136 7.740087334973625 0 0 -1
192 33 3 16.31984133545481 5.375143139343275 8.409849484134616 0 0 -1
193 33 3 16.29017200362062 6.532192250708072 9.195058080172428 0 0 -1
194 33 2 15.553777652626035 6.396506199824167 10.025100392453282 0 0 -1
195 34 2 2.074848984174558 3.779128974992563 4.674937710632435 1 0 -1
196 34 2 5.31142363619695 7.35810099101487 5.872426811825732 1 0 -1
197 34 2 1.06351810836284 9.276791809269508 9.691488083480037 1 0 -1
198 34 2 3.939410633086158 6.507243683731538 9.850365181523856 1 0 -1
199 34 2 2.9213879866340453 8.912350486739186 9.632677708962209 1 0 -1
200 34 2 5.813403506085286 6.6321400832056145 9.613399087274422 1 0 -1
201 35 2 1.9880848166368077 4.8582435750077195 6.0937208828877285 1 0 -1
202 35 2 3.6268137552342394 6.988195867230458 5.726006790142045 1 0 -1
203 35 4 1.5420126270728876 6.515076773415987 3.3445617846939775 1 0 -1
204 35 3 1.508256924279523 5.738117053988751 4.232109034652569 1 0 -1
205 35 3 1.4976153432873562 4.62042507010985 5.1618265429144286 1 0 -1
206 35 2 0.5233510069387609 4.3205354646636795 5.553509547299237 1 0 -1
207 36 4 4.480920075403951 9.173377867778852 3.4665464694850714 1 0 -1
208 36 3 4.450036740035825 8.381541203929094 4.292710426719956 1 0 -1
209 36 3 4.499005479980169 7.199037445148174 5.169061365695299 1 0 -1
210 36 2 4.738626137509879 6.297503988283239 4.498805300032929 1 0 -1
211 36 4 1.5730326338973881 6.9936866974137155 7.5252615777705 1 0 -1
212 36 3 1.6906855973180606 7.948037210136343 8.172345213337204 1 0 -1
213 37 3 1.9851071892689602 9.12428776512502 9.023536360632415 1 0 -1
214 37 2 2.0359452166591674 10.055916234432038 8.414827658683695 1 0 -1
215 37 4 4.827531600819243 4.517381787569641 7.456372069699272 1 0 -1
216 37 3 4.7529189056233845 5.377357947667289 8.242987948162005 1 0 -1
217 37 3 4.833855608257261 6.5449887357866645 9.135312422827734 1 0 -1
218 37 2 4.596458412219091 7.341205114194384 8.438161401337492 1 0 -1
219 38 2 8.505778373929969 10.300560497089009 13.740978455241336 0 -1 -1
220 38 2 10.202266308702333 11.171748074445086 12.910376616173236 0 -1 -1
221 38 2 7.56866904646752 0.09651914269996963 1.283002578276706 0 0 0
222 38 2 10.109563196851019 12.418109113021684 1.383579866952896 0 -1 0
223 38 2 6.753906999510444 14.028305253605666 2.4851587673971824 0 -1 0
224 38 2 9.730061766695771 11.219035485797598 2.69686987675471 0 -1 0
225 39 2 6.76168885183903 10.11670148514058 13.898598739101857 0 -1 -1
226 39 2 11.595929259195008 12.024668047546651 13.687053193811202 0 -1 -1
227 39 4 7.243077896418867 11.777194229692649 11.257635894825416 0 -1 -1
228 39 3 7.36403117956604 10.984914126564663 12.138618867422608 0 -1 -1
229 39 3 7.623358106410913 10.020129991060625 13.187345954743211 0 -1 -1
230 39 2 7.703900011907279 9.036389937693505 12.762893137559827 0 -1 -1
231 40 4 10.177307208939427 14.005123297344896 11.485508898836814 0 -1 -1
232 40 3 10.423436379880444 13.123202957054158 12.183076387500838 0 -1 -1
233 40 3 10.538919586426658 12.12835986186571 13.282910051061567 0 -1 -1
234 40 2 9.96714202243287 12.639378299369126 14.065975506280223 0 -1 -1
235 40 4 7.568206846580901 12.274879692551195 0.24322249821151815 0 -1 0
236 40 3 7.655886058295821 13.242202905346376 0.8486822867300419 0 -1 0
237 41 3 7.606310636914613 14.318806305046772 1.8265634745327428 0 -1 0
238 41 2 8.534835368643142 14.119714124964867 2.4479039069430404 0 -1 0
239 41 4 10.507259377638205 9.60496682004077 0.16105067406851836 0 -1 0
240 41 3 10.500402070731814 10.428844570401123 0.9684276456575043 0 -1 0
241 41 3 10.514502380927933 11.509492533873757 1.9161474819448292 0 -1 0
242 41 2 11.523359016010156 11.72963496322201 2.2839181549031107 0 -1 0
243 42 2 12.614879706926647 9.691887214725579 13.805031949665272 0 -1 -1
244 42 2 16.11934332933404 11.284197999517882 12.62458747815441 0 -1 -1
245 42 2 13.871066846805345 13.816175089875484 2.4599382396275273 0 -1 0
246 42 2 15.379895407254098 11.550658072961536 2.245010949831553 0 -1 0
247 42 2 13.523741376187047 15.05536116765472 1.1260883889134758 0 -1 0
248 42 2 17.04864015080267 11.279162424170382 2.3013366910115085 0 -1 0
249 43 2 13.24191363744247 8.745746990267055 12.52248044055829 0 -1 -1
250 43 2 17.231183077676505 12.222423641104333 13.518993379963105 0 -1 -1
251 43 4 13.234683094525733 11.673097710597485 11.502462779232586 0 -1 -1
252 43 3 13.336790689808574 10.770128859449246 12.221923187244332 0 -1 -1
253 43 3 13.435786457083655 9.657058642800703 13.098532372374162 0 -1 -1
254 43 2 14.36751761635704 9.596394298496277 13.611321122895458 0 -1 -1
255 44 4 16.07404938839912 14.203161013298626 11.431869314818252 0 -1 -1
256 44 3 16.134475271840248 13.364064723103796 12.250904722813893 0 -1 -1
257 44 3 16.270859274121616 12.193568092231947 13.084407654219444 0 -1 -1
258 44 2 15.498030601132248 12.248474244572193 13.820355788964386 0 -1 -1
259 44 4 13.105858698491756 11.963458375622682 0.09457682341851202 0 -1 0
260 44 3 13.266420186561025 12.917429519647225 0.7473401898245996 0 -1 0
261 45 3 13.227200805357198 14.086167344514699 1.6121768133406622 0 -1 0
262 45 2 12.20859863919603 14.112928668067926 1.9561120461775243 0 -1 0
263 45 4 15.843744353741759 9.483908394577048 15.072115580002293 0 -1 -1
264 45 3 16.089201434353203 10.37254986501659 0.7025556576159846 0 -1 0
265 45 3 16.259550924334714 11.480206419243357 1.5726805468022165 0 -1 0
266 45 2 16.576478698150805 12.38755720947277 1.018350646909608 0 -1 0
267 46 2 2.6653160306344335 9.800488558548812 13.480938215402174 1 -1 -1
268 46 2 3.960159559766265 12.445827201734607 13.74243211804391 1 -1 -1
269 46 2 2.728604467470032 14.126823048154312 2.398865378694664 1 -1 0
270 46 2 5.451732250733074 11.699709032258246 2.4077793777603973 1 -1 0
271 46 2 1.7462842555292186 15.127379354901782 1.2546209455726587 1 -1 0
272 46 2 4.8081404246153125 12.757232062044999 1.1619838648508058 1 -1 0
273 47 2 0.7250508441020728 9.751980295638726 13.184395760203405 1 -1 -1
274 47 2 4.680994454722954 11.569400416843246 12.391090649293682 1 -1 -1
275 47 4 1.7539961000266704 11.814806439308946 11.23356354731499 1 -1 -1
276 47 3 1.757236646771588 10.84358012413803 11.851269993683342 1 -1 -1
277 47 3 1.7911758617902471 9.753127665894612 12.79482326501077 1 -1 -1
278 47 2 1.921858717465281 8.784221603694146 12.175352246952322 1 -1 -1
279 48 4 4.866268415297039 14.463468750696352 11.38636220288334 1 -1 -1
280 48 3 4.706312366848706 13.588375673756692 12.155654654637246 1 -1 -1
281 48 3 4.761210137573424 12.462702876596675 13.034753295743496 1 -1 -1
282 48 2 5.721383184530035 12.506292400919259 13.586045733550764 1 -1 -1
283 48 4 1.767622237067852 12.19962436287512 15.058667324471712 1 -1 -1
284 48 3 1.8841039829761164 13.042850806147596 0.7434298303384445 1 -1 0
285 49 3 1.842244645689433 14.166200657539312 1.7820402606368722 1 -1 0
286 49 2 0.9610562562581297 13.84673045778065 2.4650119886975124 1 -1 0
287 49 4 4.559710763678327 9.869605993243432 0.03787025151095372 1 -1 0
288 49 3 4.559918967097092 10.741809938491851 0.8304563581832982 1 -1 0
289 49 3 4.562819620614292 11.825654030014011 1.754551058833043 1 -1 0
290 49 2 3.6693398693566377 11.98297174846247 2.3260220559954954 1 -1 0
291 50 2 7.133860303959555 0.024374637356757767 14.097302688596832 0 0 -1
292 50 2 11.777350275373076 1.9818336327790191 13.633278573721654 0 0 -1
293 50 2 7.542033671072798 5.185147947882391 1.3828511096708886 0 0 0
294 50 2 10.411710250015467 2.4803055768633695 1.343415174897035 0 0 0
295 50 2 6.523401203138841 3.8824037754364187 2.0535503490516076 0 0 0
296 50 2 9.368508875002616 1.4209635657461939 2.3341095287636495 0 0 0
297 51 2 7.419836042757975 13.772726083185027 13.116432898539363 0 -1 -1
298 51 2 10.129847217655543 2.353611445946243 13.988579037379948 0 0 -1
299 51 4 7.748761294933799 1.165148736664636 11.224129417573641 0 0 -1
300 51 3 7.767582862410219 0.4260036751521023 12.162442946936572 0 0 -1
301 51 3 7.740581522465362 14.802088707625865 13.327985223484472 0 -1 -1
302 51 2 8.723968707962948 14.710566456114648 13.793057182335827 0 -1 -1
303 52 4 10.5741993913612 4.148703163383743 11.50210686818617 0 0 -1
304 52 3 10.747046061943639 3.274658533968879 12.288061825541783 0 0 -1
305 52 3 10.796094166569183 2.1629145918054205 13.167488538180363 0 0 -1
306 52 2 10.600134828702373 1.315629374420524 12.514746267990981 0 0 -1
307 52 4 7.5605244892624395 2.4067694595830464 14.732100224027386 0 0 -1
308 52 3 7.595466634577315 3.2098378296177987 0.48360494297028866 0 0 0
309 53 3 7.508274522336485 4.092179185618163 1.5953955290123427 0 0 0
310 53 2 8.319419149493607 3.8505897077750695 2.357210116138182 0 0 0
311 53 4 10.316053177304772 14.889626920493503 15.061856988015714 0 -1 -1
312 53 3 10.424131623717267 0.4873449395392234 0.8175307683039994 0 0 0
313 53 3 10.325846417929078 1.4840823031352903 1.8599040246353582 0 0 0
314 53 2 11.06070767543472 1.3949748907442474 2.6281333408556367 0 0 0
315 54 2 14.183354624433626 0.014020547258169813 13.519417026499852 0 0 -1
316 54 2 16.527389993153722 1.179801361008584 12.255240955056747 0 0 -1
317 54 2 12.482619208452737 3.626144466886947 2.1477180705000616 0 0 0
318 54 2 16.145042600466468 0.8237205362531379 2.6688191035729414 0 0 0
319 54 2 14.147044976455526 4.16749084469728 1.9506011022224923 0 0 0
320 54 2 0.015457820430901032 1.8361262546456512 2.254326266719421 1 0 0
321 55 2 12.335571856920565 15.017388273133436 13.35030983292912 0 -1 -1
322 55 2 17.138066105996863 2.3777612770081262 13.432458061175886 0 0 -1
323 55 4 13.23553231119293 1.535113992183122 10.955205303740163 0 0 -1
324 55 3 13.301838512796591 0.7574686965814089 11.818169215737399 0 0 -1
325 55 3 13.315268263758915 14.981799447913957 12.872379523055422 0 -1 -1
326 55 2 13.42933125921894 13.976138784155417 12.422371825774647 0 -1 -1
327 56 4 16.68504867867164 4.372112378431128 11.22369182900873 0 0 -1
328 56 3 16.543706485760325 3.340938506047605 11.807959159057546 0 0 -1
329 56 3 16.36368862979182 2.17799575551186 12.633504647159187 0 0 -1
330 56 2 15.423123413789122 2.1697885744193965 13.12992971693248 0 0 -1
331 56 4 13.7863365309519 1.8548256156289782 14.875558146820294 0 0 -1
332 56 3 13.518302469059742 2.6093581835624633 0.6578319136940426 0 0 0
333 57 3 13.226729898560247 3.8632149661575754 1.3447032438602964 0 0 0
334 57 2 12.828411226282808 4.576498585348981 0.5843357667180824 0 0 0
335 57 4 16.669888214359656 14.957169642126496 15.04096229748684 0 -1 -1
336 57 3 16.584182229170096 0.6331558951746875 0.7332472598445354 0 0 0
337 57 3 16.509618751750477 1.514347443678291 1.87610837184141 0 0 0
338 57 2 15.862408008969643 2.311226749777928 1.6799448359464486 0 0 0
339 58 2 2.4697072537020466 14.676887195019912 13.671523023794968 1 -1 -1
340 58 2 5.67775574886748 2.3073945894949452 13.494324808018105 1 0 -1
341 58 2 0.7094985488529446 3.928013040169367 2.01322008423657 1 0 0
342 58 2 4.653950412887004 2.5652559865100573 0.7743307274016878 1 0 0
343 58 2 2.4190035366146447 4.028020178750756 2.352725067167948 1 0 0
344 58 2 3.6011774174641333 1.6159738910777501 1.977496418755773 1 0 0
345 59 2 0.593138822766423 14.835014679808802 13.472263037371423 1 -1 -1
346 59 2 3.7809704629295204 2.361227436016051 13.42929967150897 1 0 -1
347 59 4 2.23382455140607 1.6612897029950342 11.547640872537702 1 0 -1
348 59 3 1.9345174851170095 0.7545982054220138 12.205955065448814 1 0 -1
349 59 3 1.5754704493152483 14.76409874007023 12.945977396348809 1 -1 -1
350 59 2 1.5819489605785164 13.897279305326887 12.307798213363165 1 -1 -1
351 60 4 4.974047903449528 4.089904856589651 11.106293260419964 1 0 -1
352 60 3 4.90511526573483 3.177349500366325 11.833514847117717 1 0 -1
353 60 3 4.754567668607288 2.132526550204402 12.881568991317097 1 0 -1
354 60 2 4.752473352114436 1.1088042469497656 12.487240066985628 1 0 -1
355 60 4 1.7178017845421676 2.546066178018625 14.621106753217537 1 0 -1
356 60 3 1.8572049980936451 3.2717755610854917 0.4793007829726216 1 0 0
357 61 3 1.658064246925855 4.17920237731393 1.545664254529979 1 0 0
358 61 2 1.637923764645559 5.198121962214113 1.2187177485126222 1 0 0
359 61 4 4.824204797647765 14.649786954463195 0.2503751376710637 1 -1 0
360 61 3 4.777667431469717 0.5123921338913207 0.7705518780189795 1 0 0
361 61 3 4.6416679777326575 1.7475053339139792 1.4969560660357473 1 0 0
362 61 2 5.597886559208788 1.7959132340397388 2.0561604460783345 1 0 0
363 62 2 8.386624883716854 4.779354815064663 13.431240043936626 0 0 -1
364 62 2 11.46411637245693 7.30011913647469 13.386813593476605 0 0 -1
365 62 2 7.695191822985227 10.206995972002682 1.3215871213995014 0 0 0
366 62 2 10.578518350154068 7.244405821505209 0.6895101668222239 0 0 0
367 62 2 6.300002321648962 9.426946320131666 2.1695658249382372 0 0 0
368 62 2 9.242915000864373 6.610244843200384 1.8054890478270444 0 0 0
369 63 2 6.614551936526262 4.676907091898821 13.228575387283907 0 0 -1
370 63 2 9.752254486515108 7.193144825249988 13.871542320481682 0 0 -1
371 63 4 7.6408837052866465 6.881928298640506 11.389500313808382 0 0 -1
372 63 3 7.654727845589009 5.852228876527443 11.895856716845481 0 0 -1
373 63 3 7.586590619560721 4.655236333656882 12.756819201043353 0 0 -1
374 63 2 7.635864236693982 3.764848390272281 12.1567716258917 0 0 -1
375 64 4 10.306391068310369 9.319085306420845 11.592113875702983 0 0 -1
376 64 3 10.314462038874368 8.383454919758938 12.230152338421323 0 0 -1
377 64 3 10.47381456857549 7.200117230541469 13.014909288773392 0 0 -1
378 64 2 10.393011829407717 6.2737790783549965 12.460475339344852 0 0 -1
379 64 4 7.415492262751926 7.199627900178717 0.2563535374997964 0 0 0
380 64 3 7.42917799118867 8.190996987200972 0.8757858687408421 0 0 0
381 65 3 7.366011511512757 9.282039098057378 1.821252239801033 0 0 0
382 65 2 8.149873468554963 9.096962195932072 2.6062918683582086 0 0 0
383 65 4 10.09840992229371 4.6515583999099155 14.525024846921875 0 0 -1
384 65 3 10.113348434771325 5.416138901159375 0.34039373060776595 0 0 0
385 65 3 10.260773395318454 6.434458405937012 1.3512072883846227 0 0 0
386 65 2 10.928807398600293 6.08908783362316 2.106330602085977 0 0 0
387 66 2 14.074416905013212 3.7973181095601536 12.460464436084644 0 0 -1
388 66 2 17.325603675286647 7.248101005867521 13.615300846658576 0 0 -1
389 66 2 14.211275219251018 8.876831533426262 2.5577470947503453 0 0 0
390 66 2 16.001074080307514 7.368695976440521 1.0868352562458399 0 0 0
391 66 2 13.33184183271758 9.910994119068143 1.5779574010459858 0 0 0
392 66 2 15.470094218627077 6.1605212158942235 2.419369785009219 0 0 0
393 67 2 14.521836411324374 4.752942193495389 13.761145293405383 0 0 -1
394 67 2 15.53741697233942 6.902035351301443 13.46763031748429 0 0 -1
395 67 4 13.352207692855545 6.809428299841956 11.732310352383923 0 0 -1
396 67 3 13.577251493417593 5.839644452243933 12.297718473427366 0 0 -1
397 67 3 13.734539577994537 4.632251092409889 13.019930321685758 0 0 -1
398 67 2 12.782440894814968 4.505215186277244 13.527794804813542 0 0 -1
399 68 4 16.4061023464221 8.97727972870814 11.238819199794394 0 0 -1
400 68 3 16.389299040616994 8.155996808654086 12.081738850492815 0 0 -1
401 68 3 16.459601519464112 7.031487816259838 12.954969011717404 0 0 -1
402 68 2 16.673928678447744 6.160926019502705 12.377549154658903 0 0 -1
403 68 4 13.3377060719422 6.9987322658417 0.19430487287693132 0 0 0
404 68 3 13.460325199193905 7.89300024713057 0.9635194570676295 0 0 0
405 69 3 13.345696138011537 8.902180946077305 1.9565897839359965 0 0 0
406 69 2 12.505863851920248 8.750849758534924 2.629998652969382 0 0 0
407 69 4 16.496512050404103 4.64345556920276 14.896045690691741 0 0 -1
408 69 3 16.395070713751974 5.400845112187703 0.709869927698618 0 0 0
409 69 3 16.230710054196187 6.4172754344539245 1.7063303832122236 0 0 0
410 69 2 17.186312458557428 6.599793175952482 2.2117393998796064 0 0 0
411 70 2 2.0845950011486867 3.883455324200357 12.387051940648853 1 0 -1
412 70 2 5.758451809752922 7.208094772821182 13.664458606268825 1 0 -1
413 70 2 1.7134914481282344 9.877477094165437 0.7681406957701091 1 0 0
414 70 2 5.730338621582252 6.659345515475383 1.964191693203774 1 0 0
415 70 2 0.729371826310445 9.005708276577613 2.0264183378884 1 0 0
416 70 2 4.865990243574494 7.611387405164314 0.8729530012156447 1 0 0
417 71 2 2.9598917543730368 5.046415710167118 13.401230113340311 1 0 -1
418 71 2 4.023651607808544 7.180699400613079 13.601412196548932 1 0 -1
419 71 4 1.9719117020159196 6.871970090263635 11.060267926291933 1 0 -1
420 71 3 2.029494727087251 5.883606362485452 11.695508121053276 1 0 -1
421 71 3 2.106021768040769 4.911703976238155 12.803002827006631 1 0 -1
422 71 2 1.2588917844205898 5.159439221134799 13.510606066640088 1 0 -1
423 72 4 4.773498598604039 9.011277319817156 11.192103145561498 1 0 -1
424 72 3 4.809289862885213 8.158300158254095 11.993258595322997 1 0 -1
425 72 3 4.879827079631354 7.081553657748922 12.959050449265199 1 0 -1
426 72 2 4.919568543205345 6.1537075483203765 12.440246598765079 1 0 -1
427 72 4 1.9754948856015555 6.973802405304981 14.805795551588774 1 0 -1
428 72 3 1.6583420112365652 7.864738660508779 0.4237819215257677 1 0 0
429 73 3 1.6532806691586737 8.982477826098904 1.3493530176881618 1 0 0
430 73 2 2.526585777010901 8.927028512329013 2.0773978666599255 1 0 0
431 73 4 4.868878751777459 4.738196641530558 14.789605766061706 1 0 -1
432 73 3 4.800367323536827 5.61318043493964 0.48048251524715135 1 0 0
433 73 3 4.746343259651026 6.638866171998382 1.4473059719492363 1 0 0
434 73 2 3.93209648192954 6.583102050372372 2.1562726422832523 1 0 0

Velocities

1 -0.9099020624033521 -1.3099559134437810 2.3516723452318535
2 37.0932036819538169 -125.3030285791885206 -13.9022558074111728
3 29.8989151654507772 0.6506286550454908 -19.9262218687454187
4 14.0213276090039543 5.6061484041316723 -1.3717361569907816
5 -9.3294713982818216 3.1511226704810302 19.9037232149125067
6 -17.1346455471637817 50.7304442844096073 19.4328177564451003
7 -5.6234736982451787 11.6358989081684783 -4.0360759610308188
8 -3.2103531145633353 -13.8821661326904326 3.3732816837256721
9 0.9653470340850502 1.9372182224639931 8.7572576615751156
10 -15.7676665008844932 -1.5722040148210423 -9.5219393965262675
11 -1.2108568629526004 3.7928025904766938 0.4551191187334969
12 3.3023007021315189 -6.1948667599836744 0.1526405430989800
13 -7.2177510214626777 0.4575405074372139 -0.2476829181156429
14 -0.1087838791192053 -14.1785186349927166 10.1798438158535287
15 -3.8854671235127087 -3.3594359188097189 -1.6262770367518729
16 -4.0408920874396310 4.0267755039803870 -5.6062971867644968
17 -5.2186868705618634 -0.7504012231626642 -3.3241976056874170
18 -31.0687035618941430 3.7261936609359347 10.8746001706010311
19 -2.2297109790954686 9.2219837310147348 2.4881921888699554
20 0.8045275887574114 -7.1298503007402578 -1.5700691436509391
21 -7.6158845777364359 3.3773329180512865 3.0874203549744328
22 -12.7827334326676727 17.0516415060709541 19.8252396079162203
23 -2.4021139547197188 5.3968260349469181 0.2413413473765649
24 0.2325102694771435 4.6692615022639421 -3.4818328058529429
25 -5.4668345616961718 -5.7041429816019686 -4.9965277632196701
26 -2.6904371019737732 -33.8766514358353703 -6.0402808636716125
27 -16.1425451121464896 -25.4117117493586449 -17.3052805492587147
28 24.3576407094528342 -8.4445841347931445 -9.0423345684849483
29 -22.1704817584272504 13.6158538785527146 -6.1172235136762181
30 12.9915973118318711 25.3869422509391676 -26.8477357011697570
31 9.9898270836186320 -9.1964106373731109 -1.3380852798817695
32 -2.9300070769552837 22.4630013555617793 26.7663420332644080
33 -16.5672983001403793 -20.3338443475858597 -2.3900075927722702
34 5.3699533260712018 10.2953294163577471 2.0627326763389600
35 -3.5625008409099821 0.3206742334540115 0.4672234773810078
36 1.3093361242029609 1.4571406935199227 -1.1969652332773868
37 9.6573945038986064 -7.0918825184804621 9.3758424931178297
38 12.9111140537147175 31.1977635131357509 0.9436599906959314
39 7.3461770357959049 -1.5180072264424220 4.9230005785414050
40 -0.1678616931670656 5.5114907383820997 5.4035626738009022
41 9.1204203917793620 -3.3352734896289271 -3.9011448472480432
42 14.7451074805391578 -18.4644730644119157 1.9671500015511190
43 -4.3635084746156449 -2.5984662170228514 -6.5339375573038696
44 -1.9393497028104039 0.9342816471204692 0.1366970149624794
45 -5.4523480744099997 -4.7820637802382571 -1.0766276519706748
46 -5.5436470789438435 4.6672000732784422 -16.3757923399554564
47 -1.7465989739554364 -5.8272844352409736 4.1140888350203655
48 0.1678833561272975 -0.5870592358766632 0.8115869900848149
49 6.2480069694768146 -0.0192676005353256 6.7141392913717208
50 6.8400943169065807 28.2612932157815919 -18.5718914425079902
51 -13.3621602091044878 21.4310583357373403 0.9324852236465646
52 -20.0954642594523136 32.9606733604364806 -10.9595540430434575
53 -10.0779280192705354 11.7155410063587997 -14.9440973494106419
54 -1.0507521280939318 9.2666913338623065 9.7689861678387881
55 9.9087482138073266 1.2226094170453410 7.6479210780979550
56 6.2445448859711030 -6.5360322071126848 15.5181918033813915
57 35.3516641157178739 0.8236271768492673 9.9287471108603569
58 -10.1812770939595421 -2.4219697121959425 0.5034696421821324
59 -0.0496999687297760 3.4083285433003607 -0.4704256542888930
60 3.4556354748542208 -1.8430624381037968 5.6664152391751470
61 -2.9639435990758476 -0.9292109069446040 -1.4682844506159882
62 5.4803986092848733 -18.1749828198702730 17.8794015597120151
63 1.7137073969224450 6.4934998864926428 4.2528712949808991
64 -9.0612433478330949 5.1716118878694255 -1.0274501249014591
65 -3.6725832833354932 -2.1682642857289403 0.9708145163472826
66 9.2307252868078269 -2.2542987828697747 22.1347947508831382
67 11.0443303898629015 -1.8874228391707586 -4.6359428644484257
68 3.4575909593837681 6.6636021679636066 -0.9862791960765169
69 5.2396236639666736 2.4209569484697004 2.5164414131520836
70 -12.5044486723072747 4.4953459378338474 2.0938704826716901
71 -6.3396662888515172 -7.2886722336977350 -8.5965630682612755
72 4.9038518738518251 -0.0127563278630920 -0.0487407203209300
73 5.5065239982920398 -4.9846770736333008 -12.7092212076186826
74 -2.8682416894039018 18.0607886293859536 28.3222092512572381
75 16.2030096980823153 11.8321482246127463 -17.9274764587751818
76 18.9330452373217923 10.8821315845699100 23.9375364518960794
77 -4.2747530136303578 12.3657779918958788 -6.6671090204615560
78 -8.3349009304514681 -1.0747889165475772 6.1298069117342493
79 -12.9413410939741009 11.7996617191679274 9.3350620265585267
80 -11.9119906037324785 2.4947453666838681 -19.2085395558363352
81 3.5547918462443118 2.1175338418130472 -1.2265795512073694
82 12.7826446721139444 0.7153301299308874 -22.0252438611078141
83 -2.0217243056555496 2.5713055320643523 1.4193085420659286
84 0.7249274748971775 2.1883530988941833 5.8269792782823648
85 -1.3831367245980364 -4.6441781078335449 -5.2830823754183509
86 -32.0534971277579999 16.3215563358395919 26.7777011932524331
87 5.4019593215175465 -2.5101309669003373 -2.7814167145451942
88 7.2296233998569157 -0.5313988691564506 0.1255530249495747
89 0.7278186150588513 -3.4407734542969743 0.6518933067789674
90 1.7724522471748820 15.8776153383353069 -8.5283201624482192
91 0.9095609094966780 1.9612959741524096 5.9425191243228577
92 1.0624772099796413 3.0989019603017560 3.2182259817568255
93 -2.1828433555270870 -8.2781233452987504 -8.6140258419704470
94 -17.3989560103714282 6.7179781866702379 18.8077036620959603
95 5.4906490435095181 3.8060388209443103 -0.0903413530458130
96 -1.5812804440865007 1.4118734905762362 -2.2468725929803917
97 8.3213268925928379 -3.1947266731770907 -0.8841577365274604
98 -23.0704515739719049 36.7036780679696406 -4.8226345226213478
99 4.4931299849471458 23.3631250503528065 6.3120489902483410
100 -0.3727711279373166 -9.0544084100618942 14.4649348295598621
101 -11.9804011551469749 20.7399905807051610 0.0474649663181289
102 11.9702444310408218 24.7172747592244377 26.3526971112149972
103 -4.4743626704518924 3.3613121158646844 -14.2204270396664345
104 -34.5081327599105521 21.0561812999953766 2.7062284739800559
105 -2.6117943846555125 -0.7810793543322372 -8.1987021900214145
106 -25.3431827010387245 -16.6832251148862021 5.3987256355733422
107 -7.0973617646309366 2.1218678876083321 2.1472807126933002
108 -6.3051375257667939 3.8113007358336781 -1.5340681781583976
109 4.2205561324046297 -4.1523922509085720 1.7296785280725255
110 -9.3739607459868832 -19.1677608601162603 -4.0196672301688077
111 7.8589221896855399 -0.4041272824284093 6.4537910889012622
112 3.7954723363579728 -5.2506830714571695 3.1919363481969696
113 3.3848943926534982 -3.2114482654897309 -8.3900287697228162
114 -5.5913546605331685 7.3542924884739564 -19.9670325860372913
115 1.4397889340172436 1.6169125865844702 -3.0001635913035929
116 -5.0708848627461744 3.4914254404326677 -4.9530419727072159
117 -0.4984257128412443 5.2289601349627839 -6.5921301631354385
118 -17.3943276101450586 12.0443895801925436 8.6381011745573435
119 -3.3000725946060299 4.4811398046325772 -3.0165394714534108
120 -7.0760946489785352 1.7920432295980819 1.0373028435842411
121 -6.8516537427410968 3.3858412799958026 0.1550031938826818
122 10.9229894678478967 -3.7521487856084104 -6.5050966253674822
123 -10.8495578489181348 6.3560224269346808 -16.4658858734494160
124 -25.6890472089893578 -0.6942403741191344 -13.9761955077997353
125 -11.0919685948801696 4.2124449129214021 -28.0153348149967734
126 30.3163167050367264 -29.5612266940845139 7.9496089697735961
127 6.4048437635634707 11.7603853537205900 9.0259896918873146
128 33.6715920639964565 -15.9347891280932732 -2.6890510303581756
129 4.5591534866987669 3.6223543331052128 -20.3407201173672973
130 10.3899853821587751 17.2324800539840979 21.1765726624299084
131 -1.8595446449359567 -4.2192310714518326 -3.3536882432692536
132 8.5566828448696217 -1.9891178431447119 6.7244788668255140
133 -0.8888115306326211 4.3548574004472611 -6.0708244371660101
134 -2.0428247460194862 13.8579038099078833 11.4560629898914268
135 -0.9671415091788230 -6.2123255910714388 -6.7035568212066030
136 -0.7093153311737374 -2.5272400336158563 -4.8276501150581561
137 -1.9726335061641911 -1.7271205354979833 3.4649368990810565
138 14.8976012362774402 9.1005808871663962 -26.1589635523938782
139 -0.3460431093708481 0.1319768404175420 -4.4392553320276908
140 -4.0629481027363186 2.1672185377271020 -1.6563021129002000
141 -5.1940405685056401 4.9699310714041465 -0.1622799994039663
142 -0.5340918023106914 -21.9836037904220625 -6.3292846180567004
143 3.2131818457790868 -2.7278431171639324 -2.7701076367550841
144 3.9618530610995104 -1.0089614121578661 7.9205080447709646
145 -7.5052210756567774 3.8518274924521574 7.0545510609988318
146 -1.2279892601885583 -4.0681304898115780 13.1176076322672479
147 -3.0248445721795241 -11.4110282609734366 -17.1717501861323498
148 -4.1729307337538213 -12.7805204260496641 19.6377443187131355
149 -6.5938364447734710 -3.5900225307286595 0.1701158587101694
150 -9.7975513023448215 -1.3701221052480677 21.0638206320482588
151 17.1525437102154967 -3.7231877839158316 -1.6463400756779489
152 8.9398479162098194 -9.7345172539107239 8.6478191567272766
153 6.3826003145391272 -21.2871739589663420 8.0974227525874625
154 -1.1800393902058497 -20.7341859386248899 -1.1169817637616044
155 1.4716244772043108 3.5941043922180635 -8.1696304954519157
156 6.5482496410567013 9.9254855213750943 7.8897208119942208
157 5.2190397498950372 -5.7118999227930187 -2.6984546265087310
158 -1.8571208545651046 -22.2308726711099638 16.6444970878777951
159 3.1012971197999049 2.5643138442151097 6.1415189577744851
160 2.0090012699823316 9.5135868515514606 4.2310193634460767
161 -3.5742580361067815 -4.1199385622830471 0.7782902818315215
162 29.1140020843416032 -16.2099320941804415 7.1104941599746807
163 -5.9213603642203756 -3.4052601100601518 1.2658381941689185
164 -6.1245457141167163 1.8948743725275654 7.0282947958665334
165 2.9741622822261715 -4.2583890587831261 3.5826108802634393
166 -9.2833347258087660 -11.5720616833947805 2.5525103474264106
167 -2.8897630735852542 2.4703894413087881 -4.9552273760023624
168 -2.7696188160933906 -2.4592591677609934 -2.5934288945124280
169 2.2923195082326715 0.1761478908551982 -0.0483378347404469
170 -1.3266702189981181 -2.8092068291186938 2.9028618126893169
171 0.8723823230404986 -3.9323918415243648 -6.6210379008873144
172 -1.3061339910174679 -23.8277121643507854 0.8652327185413092
173 22.0032151459821179 28.4478015807698874 -6.9578373691283408
174 3.1417286799622537 -12.6080454461931950 1.0379436404639464
175 7.8890019304003287 18.0252714345039458 -11.9277589125787458
176 3.7758618270415139 -25.3434323080644219 -1.2504241628842592
177 -6.1517431480164548 -10.3214124258652920 24.3501966882031233
178 -7.3708441971418166 17.6213935422501642 5.0769825352808917
179 2.1205722381748489 7.4518822004452465 6.2759355045849166
180 1.3896442090666510 3.0150226056752114 3.6757625516685719
181 -1.3364465610768557 4.3398490418856035 4.1929972368209132
182 21.5184844172751681 -12.1928112011967293 -19.1859566387623914
183 2.3634680763638634 -6.5639110151690749 1.1981880598820516
184 5.2146355763943228 4.5025026492565168 7.3932904019952286
185 7.6061732622295724 -6.3079205105210701 2.0195556359406019
186 1.1326336922915816 -3.2509197982811875 -0.2493482249599334
187 -9.0204425076388777 -4.8919439507946274 1.7399569928193472
188 -4.4397986239115497 3.9591202123876856 -5.5103278479632376
189 0.2858484037123774 1.0728203749281970 9.4891572748239490
190 -31.8032602550810175 -4.8967175315869929 26.2424538313667277
191 -0.3116090692353518 -0.3186111893725608 -4.0248943407879363
192 2.9764446428302374 -3.0621258088709129 -3.8480804870792862
193 -1.3742595586275528 -2.6708059824146133 -0.4491577577013796
194 -10.5370058784804641 26.7558778875815904 4.8951326888555098
195 -21.8314452725350527 7.4752871171396436 28.6331249349417689
196 16.2666477128638753 24.2901607658081993 0.5029092971281013
197 0.1040642545765895 20.5223631940137530 -1.8055538714493520
198 -24.0940053073700433 -8.3464758020050436 -11.2037190556604731
199 -3.0253313531098613 -4.3721965049348324 -6.0339121276501846
200 17.2726889182664038 0.1109414583950536 -6.8781410079739080
201 -21.3725701435025428 -1.5193253748834583 -7.1547964831058515
202 -8.6049023519689456 -4.1090817471616230 15.2034882231741975
203 3.4124318675420309 -4.0293738406460644 -8.8421861341882462
204 -0.5587399268697582 4.4932863080992549 -3.1927421091711659
205 -8.1183950671473273 -1.9107993594950627 -0.2348536041169510
206 2.6919816272924888 -0.8098141050521405 10.9853726988233298
207 -5.1162365323646819 3.1478313569703986 -1.7760515228118738
208 0.6308151902422409 -2.2661729669931936 -0.1699918923302353
209 5.1650666221157060 -2.3121113056441560 -2.5813503922967720
210 -4.1878297958350466 -6.0142951925803523 -8.8968138943827331
211 1.8429424446950116 1.2304231846523084 -1.5229994122702628
212 7.4470243208798967 -0.4828573674689716 5.3040562313754718
213 7.4853482050180657 -0.2871976496555492 2.4829901897718192
214 6.8963325647641369 -16.8206483779919971 13.5112968616160227
215 -6.8599935343541727 -5.1675405928642419 3.2149798523357140
216 -4.1384787574002733 1.2355380414838173 1.2693021396057966
217 -3.6279820359988628 7.4258732627009501 2.9097265411108078
218 -10.4058532079073611 -11.7254927910457045 -12.0873446113278238
219 21.5249961321321130 -5.0852731096973631 3.8506478077151507
220 -10.0980226363725958 17.6917855180850410 -17.5723468060020238
221 13.2215409443441043 -15.6916367935713925 -14.6875752816998784
222 7.7983273349956050 -21.8778881150770239 -4.7909460257603200
223 -11.5637191982206744 5.3056474552032320 -11.2861235526704569
224 7.7940235025310409 0.1298910335065371 -26.7291521602308002
225 -13.0806496689768945 -4.3984364723103440 1.8414763524172175
226 12.9823128477663232 3.4705598401091460 -14.6528141252465467
227 6.8476782629189774 -1.8261977971192944 3.5797683648789360
228 4.6476047778070937 -4.9219496863431278 1.1870783038794746
229 7.1077886477040435 -3.1085615481034652 -6.7980088526288602
230 17.0177586731893484 2.8656245764190098 20.0396690118623404
231 0.9701038343708011 2.4704990528214639 1.0015789404479487
232 -2.9126172381601729 3.4472147414260195 8.0760330432647898
233 0.3001033975134938 -2.0878362009209663 2.9506828675149972
234 16.6784875700658155 -18.7820294248205251 1.4625462324215088
235 -2.9805768223824378 -6.4575850784588678 -2.3623410745370634
236 0.1239581569732351 -0.1724823253236980 4.5280853691366492
237 2.8168778645173842 -1.9016850923850064 1.3993594469046273
238 5.4150456067842043 -21.0246958819493628 10.4882629227577606
239 3.5657870458920047 -4.3003230124153866 -6.8680045306257744
240 -2.5926631774656670 1.2103944007109906 2.4794780678814745
241 2.3967159966997609 4.4083038978402902 6.7557739596198481
242 29.3341490233200375 -13.3756991817225401 -0.2713242036932529
243 21.8240707529107496 -27.6182576689065051 -15.7060819922226891
244 -9.2571191714106416 -16.9313054700725090 -7.0356956893269365
245 13.5645653793628878 -14.7300454277289852 -15.1507008062543971
246 5.7777096857602785 7.5069522993193214 -10.8286356415632792
247 -13.4659876095895719 -8.3866403770532436 -8.1375551558167931
248 -14.3587656955037950 7.2610512512874541 -28.3858559768147138
249 1.6586848123261222 4.2000702441391331 23.4746642710124327
250 -26.3842385122115175 22.4737915450796955 -20.5901598144865936
251 2.9123125989789562 -1.3446393491567541 4.8838091245608268
252 -0.0299862573700802 -1.5943549424082413 -2.0555343303639342
253 2.3817500311523401 -4.8334134082931000 2.8172869648770051
254 9.3856268705973509 28.8860817014935520 -4.1060935836998222
255 -2.5869669996118931 4.3669439687604585 -2.6393020813744847
256 0.7606592942956650 -0.4606349712800419 2.1513211224390161
257 -0.2797268473484462 6.9915590460767358 -4.6791127158848775
258 -50.0082497813071001 -23.4316666705501504 8.6277154798361586
259 0.1478687274877191 -0.0121441850739931 1.7455697828951779
260 -3.0234483421399956 -0.9855935375623894 12.5397074427639321
261 4.2602868296498668 -7.0598064759665506 -3.3580167315214884
262 32.8855177875404507 -23.3398244940949873 1.2883316436652479
263 12.6998726107130331 3.7245997388834029 -0.4342664250711778
264 1.0085903503537350 -5.9226826751525916 4.0284027291830595
265 0.4101203753020050 3.1477342798580894 -2.8290848339608026
266 -5.7459260549131175 4.6394761960930992 13.0705337738479734
267 -1.1864133716482641 -10.8856566958470413 -18.9556764170134464
268 16.3904820576911341 5.4908867666251187 7.6261060913295404
269 -17.0513015534546888 -17.1897067867604250 22.9979320434591017
270 17.5921118957678928 -3.5169241844615580 -3.0980190716816400
271 -2.4232681513079690 13.8628813129244577 -7.3700913866462825
272 -29.5362914979305309 28.3021426067365667 -18.4058073391660528
273 6.4887498279819544 0.3666001544890137 -9.4803170019023622
274 -14.4113962368076063 -9.2273873126018362 -33.9267827599028351
275 3.9381431800631623 -0.9001550150029524 1.8659276845053678
276 -2.8372034112235043 -11.8955002294601471 4.2533530699921691
277 -0.3318555952815715 -2.4101213802543628 -0.5702899228190198
278 -40.2359088351071037 -12.4910053164153609 -1.4932981485723398
279 -3.6821960836338370 -1.1370510965207901 -3.0139895399141050
280 -4.4982376386825678 5.0291477808796818 1.7277628472061177
281 -5.8180717004684643 -1.4311909052965064 3.4704461935237929
282 -25.3953007607259131 -1.6212525844663757 10.5612307407500996
283 -0.0293354700174623 -5.4007275012364921 -5.3991465819755335
284 -1.9356279878289582 2.8290501136694526 7.2875770178363970
285 -1.6241014418419557 0.5437865171010672 1.1997238321152943
286 -3.3224349272504692 5.0657017857692885 -8.1649699060636838
287 4.5178298839470905 0.3705467632831985 -4.1269406088562031
288 1.6159387145207864 -0.3103517211299704 -2.3377547401886400
289 -2.6864079039689344 -2.8103237039810405 -2.7655614133289332
290 -5.2885355463056358 -23.3071318630320157 -11.0091156791869178
291 -20.5692352787234505 -9.6746761835231432 -1.2664788102748183
292 -5.8997746970653768 -21.1628605121699067 -33.0426033506949324
293 -1.7803438017587312 14.3512935823919960 -0.9676262668618379
294 37.7037693720463238 -10.7166414427921417 10.8759164622244082
295 -20.3891183824109739 -2.6107974151587641 -2.1564805213329947
296 -4.5313184555651294 24.3476831450979745 -1.3460501508201268
297 4.1207823747892123 10.2133613303867143 1.3696381886410378
298 5.0585528901679240 36.9802512348569437 -16.0146397970631647
299 -0.3298870929510218 3.8220490566380656 -0.2552241771559610
300 -5.9461556661122987 -3.2040827279526147 5.0137172447406382
301 -4.3218068703188086 -3.7691971835563676 -3.5882318878146120
302 -18.7453448876911537 0.4277014960971909 -7.1079502243698167
303 8.1661479097859413 4.6010787582334212 0.5615917906640625
304 -1.1328764873706239 5.5600914674914810 2.2913853404318316
305 -5.6507801696234354 -4.1643484594822615 -2.3617831582880697
306 18.1959206094894022 -5.7004611510744612 10.6491104110047043
307 1.5706426400728377 2.3926575123014473 4.3621088684387486
308 -3.6174465085971015 -2.9681178350949216 1.0205954107414461
309 4.4215329137929338 0.7307321252390533 8.0022638026259987
310 30.2220924165292040 3.5941433506066924 -13.6338976526731184
311 -3.4350076814724813 -10.3958451881373435 -0.2552487665653312
312 -0.2597899990323139 -0.9498167458453188 -0.4088514364424513
313 5.6968901349381813 -0.5506421562662666 8.3406230893001183
314 27.5718686346138178 2.1601442857434989 -4.5737598758166111
315 -17.7105708354270917 3.9438644069446340 8.3099105815516818
316 -13.6343575490903302 -20.2815996681924346 8.4542080943035103
317 16.7965329815301274 25.2173260799074619 6.7865449275233090
318 -18.5455748658635500 -7.3232770775335911 -2.2117042715720650
319 5.0304880923452835 6.0449201262435315 -5.3458962044539966
320 5.7387195851662707 22.6664401717405610 -4.4354745308671051
321 -5.6207919741766723 0.8378119725219852 6.7113311159007427
322 2.4791163026774927 -2.5505822217405565 -4.1032952570553327
323 -6.5551816832330863 -4.4298951793095558 3.4409615911635694
324 0.5055809638214168 -0.2993545767876542 0.3554984909896400
325 -4.1575530285543616 0.3273300446892393 -4.8253458928792679
326 17.8507635678945071 13.0359938711234715 -0.4900437079891347
327 10.9944861813255930 4.7135724850792462 0.6886513834935979
328 -0.9539329978902792 4.9999903382385238 -3.1956196038402260
329 0.6565836082629106 0.9140333481367989 -4.0130307589366945
330 23.6553138604588327 -32.1654702533778689 -7.3361324314059537
331 -1.3325754251502542 3.3721185559128335 0.8279375597193981
332 0.4472354817506731 -2.2422868395429987 -6.4904769975691252
333 0.0485448343747734 -2.0155128755068863 -2.5963098180665112
334 -12.0203551378787363 13.8978241051519280 -6.3620274051334347
335 5.0011516469547708 2.8590500045136942 -1.1053626435761730
336 3.6424277662197522 1.9644800437571053 -5.5911915787660131
337 -1.6992566879139723 0.0981803503165903 7.1856066445910809
338 24.7642480923833048 21.6410207677030577 -3.7837003546862396
339 -13.0300099475304307 -5.2379478367917631 1.1813692756132181
340 -21.6577899780029028 18.6547199742734655 0.5072182237290647
341 -24.2917206211009429 -8.7036259764215362 13.9297069595367411
342 19.6933458507240502 7.8833910022750731 20.0792673424594312
343 -4.5968966578564423 -5.9826446100431383 -2.6687249315524562
344 34.2964019896232344 5.3975413677986728 -11.6024798674703984
345 -11.7991640004912810 10.5766252820299584 4.6304063999099094
346 26.8651473393079527 19.4098482176833400 -37.3424072757826835
347 -0.3136670982877638 -3.8593616385515808 0.7697968946802970
348 -3.6155004044564691 1.9471867917019261 -7.2821284608742296
349 -5.6910173237059469 2.7172082431375575 -6.9729003135929410
350 -4.5206313521847354 16.9798138195121773 5.9776196130599972
351 -2.4240686928959754 0.1304731459496065 -2.0832048986573395
352 2.9499616518155864 6.8331907295548220 -4.7100188305718378
353 0.3173296331317849 1.1181247550033433 -5.0745957079928834
354 4.8497577803991243 0.1278095692561891 -7.1376255319415485
355 -3.4186984241241385 0.6065817419651479 -1.1247439442348166
356 -1.8377006534436855 -0.3694459005288863 2.5469794863054913
357 -2.2322679936827403 -7.1426654784861157 6.2867605821121559
358 -10.4533464318304201 4.4312273803681643 -1.7428223327443271
359 -7.8401499678998245 -5.0561081717255520 2.8955471300777345
360 4.1145348554604046 5.1793065917607324 1.8383129095261539
361 -5.6277674174502010 -3.1160561682812915 2.7561196563799357
362 -24.2579320298294832 6.1411145630386148 16.3805590205817992
363 2.7570414762406656 35.2109393551828518 -19.6187586682225614
364 40.1057182657938043 30.7294810782291776 19.7216455488288105
365 -20.9705507913540394 -0.9484115100603594 -9.5129419574060066
366 -5.1714685325047514 6.4408990771635972 0.4240097271428956
367 4.3110882776393868 -9.9369598644468855 0.6929585954208384
368 -3.2658004625657049 24.1079739939956532 7.9595767287997079
369 42.2379581965368658 -10.6184342722910312 -3.9437178205573118
370 -36.5663656930843715 -23.0212318356819452 -3.3020286936988068
371 0.7384358057074076 -0.0537565653898018 -0.1084729389237003
372 4.7359439539231154 -0.6964145004532464 -6.1541689207962964
373 5.5072778538063858 -1.3393191687693007 3.1850224641704843
374 -17.1203871226629118 -18.0166507622297729 -0.2927244171232489
375 -10.3638955837079791 3.4605631426855319 1.3153177023866991
376 1.0231069950876015 4.5244529694198068 1.1047051052678105
377 1.1047194143651407 3.2166897883077805 -4.0470309683260046
378 7.0682177889737616 5.1919116481969887 38.9081750066400573
379 -4.5167515096953892 -1.3726629541889959 4.9524171016259100
380 4.7801691947505542 2.7240369646590405 3.6745819088773146
381 -3.4886782722653402 -3.0239338247817122 -3.5049293922403271
382 -27.8647510481836633 16.2844841299896288 -16.0135592918327276
383 -5.0808084930220572 2.1472830303272459 6.4599400061047909
384 3.8486405690691052 -4.6712086539922080 -8.8992977347515350
385 13.5512559865752529 -3.0767482912523740 4.3450843170611231
386 -25.4461136203436311 2.1755701280155968 -11.2276811601700537
387 34.0003785760478010 -14.7212209928042697 -18.2924882720569499
388 14.7227866371370588 17.6363209913315444 9.5245556807025000
389 17.7283687874584608 -7.2750545379791269 13.7722809059173716
390 -5.1457002980976085 -19.3054665880765732 12.7968612276126379
391 1.2682289703456062 2.3647656803979271 -4.6239952166542508
392 -7.8521161797329908 -8.7000040802816141 -5.4477568390667672
393 -10.6939577979447069 -4.9389048459063885 3.8476881772353857
394 7.8233143224629744 23.2938798182035569 -36.7165572906301065
395 -7.8600129939388585 2.0022385614411822 -7.4224005699464799
396 1.5463039283509896 7.8913809981161025 -2.9395225461286207
397 -4.9421624906161012 4.7097397242885304 -0.2206573933994318
398 3.9870627970329635 -19.7184406932044780 9.8580333998808545
399 -0.9475373045756026 -1.8023412095267002 1.3362444810197800
400 -0.5300311232689567 -1.4188149941679133 -2.9810209297246231
401 0.6817202945890446 -1.1286804241393338 4.1847171780860295
402 -6.8207287934912690 7.3234176940132869 -0.2981110112363993
403 -1.7392141215685559 0.9572508010404448 -1.1395717236965288
404 3.3343367138479110 -0.7437232338483897 -2.2834520395560594
405 -3.4073115263925642 -1.2431987147192844 -0.5500381780125023
406 5.8270684659863550 -5.6528056512050098 8.8727839213491588
407 1.7005247426784691 -3.9328936739569897 -4.1361985824940311
408 2.5157138259060692 -2.9626524335612094 -0.5214631211581238
409 1.1863456566202562 4.8880977441931703 -6.0712101765422917
410 -13.5571151492450763 0.5804053816273333 -9.5082056451523069
411 -1.0254658347485592 -4.7453902434227953 14.7412909856619301
412 -15.0041624981960737 9.1224050681551621 -20.9650841279765778
413 6.7624877556256786 2.9218391738179204 -9.7400273961278643
414 14.6439001608019623 40.3707068214692342 29.1250478649684084
415 -0.3631752158806432 18.2403960945946757 14.4806640004764926
416 2.4557695082104094 -12.0279128160379063 -5.4816576693801240
417 18.7016001804689544 -2.3153534499903938 -11.4305378693315944
418 1.1447903676731987 -28.4015405704991970 -15.0803337602989398
419 -0.1675677094317676 1.9333224011975876 -1.3176166637044164
420 1.9972028365676719 1.1297763161267216 -9.7077118332015093
421 -0.0423810173460630 2.4308874936659293 -0.9618771247394942
422 -10.5984198402103242 -18.1792528556634387 -0.3477310121182590
423 5.6196066118676296 -3.5020766853662972 5.4976651112185744
424 1.6428244233603619 -4.2831142301574410 2.7564751217749190
425 -0.9478201521853467 2.7017632657580486 0.4692036072495053
426 -7.4445146636577055 0.9746936656324772 21.0266504369924050
427 4.0878738393789256 -5.2077946032673532 -4.4308150954645731
428 -3.1385540509527803 -3.1222600336943573 4.3136988559516629
429 0.3917650340497110 3.3100634376044420 4.6968586243807966
430 2.7145740671534186 -2.4538892893137310 -6.2835570708017601
431 -1.4150764474062554 0.4929304604973920 -3.4599326877772052
432 -1.4760818281210979 2.8758609932823318 2.3731087063788747
433 4.0395206544221898 4.9246511691707742 4.1560583419311365
434 -12.7120710366469059 -25.8313826542607821 -9.9242375460239174

Bonds

1 4 356 355
2 2 361 342
3 2 361 344
4 2 361 362
5 3 361 360
6 4 360 359
7 4 308 307
8 4 312 311
9 2 313 294
10 2 313 296
11 2 313 314
12 3 313 312
13 4 332 331
14 4 336 335
15 2 337 318
16 2 337 320
17 2 337 338
18 3 337 336
19 2 357 341
20 2 357 343
21 2 357 358
22 3 357 356
23 4 432 431
24 2 433 414
25 2 433 416
26 2 433 434
27 3 433 432
28 2 309 293
29 2 309 295
30 2 309 310
31 3 309 308
32 4 384 383
33 2 385 366
34 2 385 368
35 2 385 386
36 3 385 384
37 2 333 317
38 2 333 319
39 2 333 334
40 3 333 332
41 4 408 407
42 2 409 390
43 2 409 392
44 2 409 410
45 3 409 408
46 4 428 427
47 2 429 413
48 2 429 415
49 2 429 430
50 3 429 428
51 4 288 287
52 4 380 379
53 2 381 365
54 2 381 367
55 2 381 382
56 3 381 380
57 4 240 239
58 4 404 403
59 2 405 389
60 2 405 391
61 2 405 406
62 3 405 404
63 4 264 263
64 4 284 283
65 2 285 269
66 2 285 271
67 2 285 286
68 3 285 284
69 2 289 270
70 2 289 272
71 2 289 290
72 3 289 288
73 4 236 235
74 2 237 221
75 2 237 223
76 2 237 238
77 3 237 236
78 2 241 222
79 2 241 224
80 2 241 242
81 3 241 240
82 4 260 259
83 2 261 245
84 2 261 247
85 2 261 262
86 3 261 260
87 2 265 246
88 2 265 248
89 2 265 266
90 3 265 264
91 4 132 131
92 4 136 135
93 2 137 124
94 2 137 130
95 2 137 138
96 3 137 136
97 4 84 83
98 2 89 76
99 2 89 82
100 2 89 90
101 3 89 88
102 4 88 87
103 4 108 107
104 1 1 2
105 4 112 111
106 2 113 100
107 2 113 106
108 2 113 114
109 3 113 112
110 4 204 203
111 2 205 195
112 2 205 201
113 2 205 206
114 3 205 204
115 2 209 196
116 2 209 202
117 2 209 210
118 3 209 208
119 4 156 155
120 2 157 147
121 2 157 153
122 2 157 158
123 3 157 156
124 2 161 148
125 2 161 154
126 2 161 162
127 3 161 160
128 4 180 179
129 2 181 171
130 2 181 177
131 2 181 182
132 3 181 180
133 2 185 172
134 2 185 178
135 2 185 186
136 3 185 184
137 4 60 59
138 2 61 51
139 2 61 57
140 2 61 62
141 3 61 60
142 4 208 207
143 4 12 11
144 2 13 3
145 2 13 9
146 2 13 14
147 3 13 12
148 4 160 159
149 4 36 35
150 2 37 27
151 2 37 33
152 2 37 38
153 3 37 36
154 4 184 183
155 2 133 123
156 2 133 129
157 2 133 134
158 3 133 132
159 4 64 63
160 2 65 52
161 2 65 58
162 2 65 66
163 3 65 64
164 2 85 75
165 2 85 81
166 2 85 86
167 3 85 84
168 4 16 15
169 2 17 4
170 2 17 10
171 2 17 18
172 3 17 16
173 2 109 99
174 2 109 105
175 2 109 110
176 3 109 108
177 4 40 39
178 2 41 28
179 2 41 34
180 2 41 42
181 3 41 40
182 4 140 139
183 4 144 143
184 2 145 126
185 2 145 128
186 2 145 146
187 3 145 144
188 4 92 91
189 4 96 95
190 2 97 78
191 2 97 80
192 2 97 98
193 3 97 96
194 4 116 115
195 2 121 102
196 2 121 104
197 2 121 122
198 3 121 120
199 4 120 119
200 2 141 125
201 2 141 127
202 2 141 142
203 3 141 140
204 4 216 215
205 2 217 198
206 2 217 200
207 2 217 218
208 3 217 216
209 2 93 77
210 2 93 79
211 2 93 94
212 3 93 92
213 4 168 167
214 2 169 150
215 2 169 152
216 2 169 170
217 3 169 168
218 2 117 101
219 2 117 103
220 2 117 118
221 3 117 116
222 4 192 191
223 2 193 174
224 2 193 176
225 2 193 194
226 3 193 192
227 4 212 211
228 2 213 197
229 2 213 199
230 2 213 214
231 3 213 212
232 4 72 71
233 4 164 163
234 2 165 149
235 2 165 151
236 2 165 166
237 3 165 164
238 4 24 23
239 4 188 187
240 2 189 173
241 2 189 175
242 2 189 190
243 3 189 188
244 4 48 47
245 4 68 67
246 2 69 53
247 2 69 55
248 2 69 70
249 3 69 68
250 2 73 54
251 2 73 56
252 2 73 74
253 3 73 72
254 4 20 19
255 2 21 5
256 2 21 7
257 2 21 22
258 3 21 20
259 2 25 6
260 2 25 8
261 2 25 26
262 3 25 24
263 4 44 43
264 2 45 29
265 2 45 31
266 2 45 46
267 3 45 44
268 2 49 30
269 2 49 32
270 2 49 50
271 3 49 48
272 4 348 347
273 4 352 351
274 2 353 340
275 2 353 346
276 2 353 354
277 3 353 352
278 4 300 299
279 2 305 292
280 2 305 298
281 2 305 306
282 3 305 304
283 4 304 303
284 4 324 323
285 4 328 327
286 2 329 316
287 2 329 322
288 2 329 330
289 3 329 328
290 4 420 419
291 2 421 411
292 2 421 417
293 2 421 422
294 3 421 420
295 2 425 412
296 2 425 418
297 2 425 426
298 3 425 424
299 4 372 371
300 2 373 363
301 2 373 369
302 2 373 374
303 3 373 372
304 2 377 364
305 2 377 370
306 2 377 378
307 3 377 376
308 4 396 395
309 2 397 387
310 2 397 393
311 2 397 398
312 3 397 396
313 2 401 388
314 2 401 394
315 2 401 402
316 3 401 400
317 4 276 275
318 2 277 267
319 2 277 273
320 2 277 278
321 3 277 276
322 4 424 423
323 4 228 227
324 2 229 219
325 2 229 225
326 2 229 230
327 3 229 228
328 4 376 375
329 4 252 251
330 2 253 243
331 2 253 249
332 2 253 254
333 3 253 252
334 4 400 399
335 2 349 339
336 2 349 345
337 2 349 350
338 3 349 348
339 4 280 279
340 2 281 268
341 2 281 274
342 2 281 282
343 3 281 280
344 2 301 291
345 2 301 297
346 2 301 302
347 3 301 300
348 4 232 231
349 2 233 220
350 2 233 226
351 2 233 234
352 3 233 232
353 2 325 315
354 2 325 321
355 2 325 326
356 3 325 324
357 4 256 255
358 2 257 244
359 2 257 250
360 2 257 258
361 3 257 256
