LAMMPS data file

434 atoms
4 atom types

0 16.193488 xlo xhi
0 16.193488 ylo yhi
0 16.193488 zlo zhi

Masses

1 18.9984
2 1.0079
3 12.0107
4 14.0067

Atoms

1 1 6.625777069386204 0.8673598421649616 0.32349289198107767 1 1 1
2 2 7.517251977231894 0.5750923128290747 0.7114797213811431 1 1 1
3 3 13.951916832990047 12.603455446560293 15.02430342022172 1 1 1
4 2 14.906361809440828 12.892197116597265 15.412330540503168 1 1 1
5 2 13.229807518245847 13.408354563173173 14.918607764696462 1 1 1
6 2 14.038563310227488 12.193595142759792 14.039052802403821 1 1 1
7 3 13.26656380317379 11.739104112541158 15.911033715113861 1 1 1
8 4 12.601322311263065 11.04320666692211 0.3903076075586165 1 1 2
9 3 1.1197548053929918 11.803372876933995 14.00234669249272 2 0 1
10 2 2.0823311326327865 12.319821838241358 14.356580804751776 2 0 1
11 2 0.44547374106604654 12.590271119782342 13.608116802996005 2 0 1
12 2 1.1919719835639289 11.025364448596264 13.225818667817512 2 0 1
13 3 0.47862147852871934 11.165230987016317 15.179034900287364 2 0 1
14 4 16.03691914716084 10.700623621965432 16.02343797693009 1 0 1
15 3 11.871420160886679 4.849833195100898 2.8560148860517303 0 1 2
16 2 11.29254001087877 4.913732097772813 1.929573268719678 0 1 2
17 2 12.229393174785468 5.841529045406839 3.0741472917395622 0 1 2
18 2 11.307898319443021 4.580748108665052 3.685894500431961 0 1 2
19 3 12.974786743456557 4.012143411269364 2.477476928990047 0 1 2
20 4 13.90020232013227 3.516877405923867 2.0357562007436356 0 1 2
21 3 12.970655696060504 15.595434137038582 5.97122590601066 0 1 1
22 2 13.674625428580361 15.18120426455074 5.224699373004043 0 1 1
23 2 13.582238682017708 16.01343226397174 6.813307095765072 0 1 1
24 2 12.496867858298522 0.24818569080612457 5.482965143139394 0 2 1
25 3 12.116906250215417 14.5074706361498 6.40996192668597 0 1 1
26 4 11.467031242503586 13.601222395895999 6.79068239691053 0 1 1
27 3 11.119122536218779 11.614373528348017 3.7136310831009114 1 2 2
28 2 12.14741898846986 11.52169625381418 3.2956107511343413 1 2 2
29 2 10.930820863036534 10.892767271170175 4.516926852320716 1 2 2
30 2 11.130509060594639 12.652435192957917 4.053699201264816 1 2 2
31 3 10.113661252038016 11.290741061805148 2.700550394956578 1 2 2
32 4 9.356652590723286 10.99779712826479 1.8967329935184376 1 2 2
33 3 15.241086480641682 8.062806803171743 3.7895636692340013 0 1 1
34 2 15.644975896874747 8.678819598497554 2.9028561130229233 0 1 1
35 2 14.16951781037084 8.152456995887011 3.874126705404332 0 1 1
36 2 15.456870142421801 7.01013777584156 3.6000954866508583 0 1 1
37 3 15.93060265601386 8.554320716662199 4.961383526855035 0 1 1
38 4 0.2551068038988616 8.832388776560355 6.016430290816608 1 1 1
39 3 9.476786928214025 15.745089338738413 12.852685430410641 1 0 1
40 2 8.645330194920843 15.776884418020686 12.106304219789914 1 0 1
41 2 9.542512273890507 14.732463691748988 13.21962136854944 1 0 1
42 2 10.471220334315989 15.949986025709675 12.331011356334448 1 0 1
43 3 9.158669992368816 0.4218855181940411 13.94471024578363 1 1 1
44 4 9.091101363562453 1.1003619733859273 14.876130313864333 1 1 1
45 3 9.698529588828983 7.686866503291221 5.199407844481939 0 1 2
46 2 10.07634578893788 6.976936786130955 5.898495041191305 0 1 2
47 2 8.77403970544513 8.10573576682441 5.601551915974484 0 1 2
48 2 10.427711939542851 8.454843640599913 5.038664821128498 0 1 2
49 3 9.48136548375787 7.047154614368408 3.918320990409102 0 1 2
50 4 9.31722878995112 6.6513412186216785 2.8502265847521713 0 1 2
51 3 13.73255139417308 11.03791419588307 5.5856154568489895 0 1 1
52 2 13.525588991354136 11.931402208537119 4.984816348317373 0 1 1
53 2 12.872068160439593 10.354452695476045 5.4743445137916495 0 1 1
54 2 14.653717393942392 10.558318473356676 5.223472288823038 0 1 1
55 3 13.716752064878165 11.205806321191766 6.995846476910988 0 1 1
56 4 13.747329500226162 11.150022030308037 8.163133490729773 0 1 1
57 3 15.059426289764179 11.933472314867007 2.6265073280725013 0 0 2
58 2 14.88411831447692 12.064491692030428 1.5652669556408854 0 0 2
59 2 14.784241917891437 12.873584460541945 3.0829638097409484 0 0 2
60 2 14.247689982870334 11.209136067579925 2.9535597512211895 0 0 2
61 3 0.16966478948563288 11.520321450521685 2.992384363844842 1 0 2
62 4 1.203013733394969 11.140851878624812 3.3258443163561395 1 0 2
63 3 3.3104352049733703 11.262401180469242 11.082436438615403 1 0 1
64 2 2.890171294885333 11.654832824169773 10.15401101197128 1 0 1
65 2 4.413612627081911 11.300482282363172 11.095331910194519 1 0 1
66 2 3.0133138845238876 11.921451854514599 11.886851153510683 1 0 1
67 3 2.755226304889632 9.924840200759357 11.415822628401282 1 0 1
68 4 2.31773648289937 8.872005724042968 11.660619607974207 1 0 1
69 3 8.558530760565828 8.199653863636206 8.993921759238974 1 0 1
70 2 9.585074974896173 8.48860089876479 8.733950707902345 1 0 1
71 2 8.614612966571379 7.8335835888839584 9.995541874581237 1 0 1
72 2 7.893546214457869 9.083639745208131 9.06202089115866 1 0 1
73 3 8.11376258630628 7.1307053025266605 8.169607270631689 1 0 1
74 4 7.984790813178138 6.275959710497528 7.405178515486747 1 0 1
75 3 0.6160149146579353 10.44715186538642 8.877107229802204 1 0 1
76 2 1.6329339232196816 10.013167428251181 8.841478593830871 1 0 1
77 2 0.6494067798879519 11.334072857989522 9.519813215152691 1 0 1
78 2 0.32915899336282906 10.723438929248534 7.8323377430444605 1 0 1
79 3 15.938702815803348 9.480726510309943 9.357862958552541 0 0 1
80 4 15.294759768109508 8.610164973435937 9.81150098108977 0 0 1
81 3 15.75636113303231 13.988503823529502 7.822980225477901 0 1 2
82 2 0.6598714146727196 13.896239344388272 8.11623906811013 1 1 2
83 2 15.221265556126362 13.219354148358171 8.331712463701654 0 1 2
84 2 15.460327125544904 15.085433723336687 8.064660667415481 0 1 2
85 3 15.732257484003844 13.759181821688927 6.405290887386367 0 1 2
86 4 15.62790739527584 13.689335766212094 5.277441793270778 0 1 2
87 3 2.0990326139736237 8.302087650827817 2.136783784682165 1 0 2
88 2 1.5918406661067976 9.265884062969526 2.190009400419289 1 0 2
89 2 1.6112004348904292 7.643539071549341 2.945182390730217 1 0 2
90 2 1.9219306707809152 7.9320038303217295 1.125416590871279 1 0 2
91 3 3.4877031794980566 8.393465239307 2.417425143860553 1 0 2
92 4 4.620113196460409 8.54278987104971 2.580253645099797 1 0 2
93 3 5.1211476468719965 7.943196475174834 9.677517659990835 0 1 1
94 2 4.139017243565223 8.041837416540297 9.246444036840732 0 1 1
95 2 5.170545869752578 6.901694996327252 10.031959885789034 0 1 1
96 2 5.9199078034947075 8.001576209880213 8.883000255132599 0 1 1
97 3 5.461420977682109 8.634676727224765 10.88403361223312 0 1 1
98 4 5.8756845610913535 9.045524798885747 11.905649488751642 0 1 1
99 3 14.393749337166446 1.8005047151231677 10.870233415051338 0 1 1
100 2 15.269087405021079 1.4364022687760094 11.368920750870794 0 1 1
101 2 13.749990451447468 2.355011416652478 11.605668876894914 0 1 1
102 2 14.648187362471367 2.434374804690241 9.955799520219015 0 1 1
103 3 13.65629551600146 0.7025910593448403 10.245312568947714 0 1 1
104 4 13.24196815329797 15.897040158182065 9.78075351558243 0 0 1
105 3 13.740723662845449 12.961145370310403 11.066745686633423 -1 1 2
106 2 13.293609168004917 13.094294457097648 12.075555371689122 -1 1 2
107 2 13.390124190129637 12.022881985354486 10.614345586888609 -1 1 2
108 2 13.505459397095215 13.792946523947538 10.378309349006804 -1 1 2
109 3 15.188211079939501 12.778879319530308 11.137408371720774 -1 1 2
110 4 0.12906886315035332 12.605480593237116 11.026529490273298 0 1 2
111 3 4.813500842776037 1.7272347329972995 2.84622966373546 1 2 2
112 2 5.460008053568188 1.0676321304216279 2.2986747928086455 1 2 2
113 2 5.139856083225663 1.6260273030734167 3.877339660607312 1 2 2
114 2 4.9559876164314005 2.7397428594906303 2.5097500054642152 1 2 2
115 3 3.4020210693308752 1.3296517472315084 2.7979360214465325 1 2 2
116 4 2.273522464594064 1.0047780468741436 2.805966820223188 1 2 2
117 3 14.026596179913643 5.637214624071156 11.015952874320005 0 1 2
118 2 12.957869855861036 5.855958219078819 10.900176441202497 0 1 2
119 2 14.495307846667995 6.505503508690367 11.439841545542945 0 1 2
120 2 14.161876119669408 4.8439884060516185 11.762427676933319 0 1 2
121 3 14.564478376772422 5.222696790556139 9.749081497754737 0 1 2
122 4 15.085809914554474 4.733816537274201 8.850672297967813 0 1 2
123 3 6.169247579325161 14.536798574674226 14.147859274880526 1 0 1
124 2 6.276109036896339 15.196357505971314 15.059139130742627 1 0 1
125 2 6.406081607426768 15.11969986891346 13.30083275709318 1 0 1
126 2 6.937713768125826 13.812436476943724 14.354238170344932 1 0 1
127 3 4.85532461707108 13.912526377221758 14.024721187268714 1 0 1
128 4 3.755613078299476 13.591055047669176 13.829091436789142 1 0 1
129 3 0.5254954237956012 2.658071901642054 0.7057903143010529 2 1 1
130 2 0.7333336326594242 2.1077666684195906 1.649683234111273 2 1 1
131 2 0.05763764150165525 3.6407581877766266 0.9698984629503286 2 1 1
132 2 1.4914763503058577 2.817052105339264 0.2050125171719205 2 1 1
133 3 15.860734639300775 2.1182789848585264 15.972142624511504 1 1 0
134 4 15.280375620482314 1.9111414671038671 14.983530680769926 1 1 0
135 3 8.227790363773847 15.400409920765581 6.111984011549291 1 0 2
136 2 8.348925893272915 0.16905493579464015 5.642573604326754 1 1 2
137 2 8.922086578725164 15.277219457979035 7.029787357446726 1 0 2
138 2 7.204931129591128 15.308866246455011 6.428479893641109 1 0 2
139 3 8.629959303140984 14.370697396800981 5.168250625777681 1 0 2
140 4 8.951593739656884 13.480131364652502 4.450133191428154 1 0 2
141 3 9.484030397200856 3.7660340571000233 12.925367672153948 1 1 1
142 2 9.062841590217365 3.9156756237529895 13.954775806411623 1 1 1
143 2 8.865541550190263 3.0206502080049016 12.448173831623402 1 1 1
144 2 9.41597399699352 4.6525493329652745 12.320725101964193 1 1 1
145 3 10.884302299957467 3.248407740611542 12.985399003300259 1 1 1
146 4 11.900939641137905 2.651828867228663 13.01398506014321 1 1 1
147 3 6.281007598058439 6.578273057122056 4.66126623777264 0 1 2
148 2 7.243156480188307 6.346191964153585 5.138994021779728 0 1 2
149 2 5.518441109140056 6.250561180388402 5.392782718771485 0 1 2
150 2 6.144267282016167 7.64602961552212 4.489212249864132 0 1 2
151 3 5.962364959920931 5.941177974695854 3.4586024081164077 0 1 2
152 4 5.647329160548084 5.336162464484095 2.492884325674353 0 1 2
153 3 16.079350615853404 3.434268483159274 4.0618132699584875 0 1 2
154 2 0.936627623120228 3.5044101981609947 4.290474478040002 1 1 2
155 2 15.973492751194295 3.3071846045204003 2.9838795853406386 0 1 2
156 2 15.629198873687837 2.5423720564407972 4.480918301960721 0 1 2
157 3 15.414473444369618 4.57543477451692 4.667100640746885 0 1 2
158 4 14.915735524050634 5.482221746023655 5.155177792741805 0 1 2
159 3 1.3068588465721067 14.327976227760876 2.727234433338576 1 -1 2
160 2 0.4856189414888535 14.425433370492154 3.4820639118357595 1 -1 2
161 2 2.054283424325639 15.172183041413845 2.608003459281674 1 -1 2
162 2 1.8630093662367713 13.460424699281738 3.1087175096546 1 -1 2
163 3 0.7500723522477902 14.082488977903004 1.3658354888458166 1 -1 2
164 4 0.26025934229465625 13.995622238144952 0.3074031834893562 1 -1 2
165 3 9.199960939589094 11.555659170582734 7.378388111047088 0 0 2
166 2 9.193680346459901 11.856920015522173 8.427071976358869 0 0 2
167 2 8.276040155617027 11.036166869744864 7.067755021610485 0 0 2
168 2 9.497752909329494 12.435277497722353 6.780805589979424 0 0 2
169 3 10.280076887978186 10.58866330855676 7.0432847939564684 0 0 2
170 4 11.028923291329399 9.783876014853757 6.64935916984532 0 0 2
171 3 7.0417027432069075 10.707917246511931 4.015398860578689 0 1 2
172 2 7.533270183938623 10.098621390877021 3.237931098950791 0 1 2
173 2 7.746918580176338 11.486605771482186 4.368783219302003 0 1 2
174 2 6.062261565461463 11.050382673609953 3.6866164853521393 0 1 2
175 3 6.753818707879755 9.9882906581563 5.191887952106012 0 1 2
176 4 6.558154195005957 9.441694787898555 6.209600324893217 0 1 2
177 3 2.997599502755254 5.6359709238422955 11.135215218218121 1 1 2
178 2 2.1121662579280684 5.012408869533965 10.982880493684835 1 1 2
179 2 3.502492396590477 5.842595115448023 10.211239362748742 1 1 2
180 2 2.73010514553542 6.61175816022681 11.631039544969779 1 1 2
181 3 3.863808679777956 4.880594542360039 11.998360839592685 1 1 2
182 4 4.620842714127248 4.436474625767804 12.791386497528993 1 1 2
183 3 5.54432692641581 15.686908103738771 9.051635118489548 1 0 2
184 2 5.00436172439881 0.43436924309140695 9.226238821257649 1 1 2
185 2 5.0407800572994015 15.43153530975183 8.085765572354662 1 0 2
186 2 6.6162059055458595 15.856048989041872 8.835819064564461 1 0 2
187 3 5.3257651026713075 14.74182881646947 10.089098700762513 1 0 2
188 4 5.307261637494992 14.01010198962892 10.986521738321697 1 0 2
189 3 2.215842837607313 14.833869354244191 11.305823505111137 1 0 1
190 2 1.641132377781226 14.568304989296642 12.223255511295775 1 0 1
191 2 3.126282507475144 15.364562353431738 11.622558883425448 1 0 1
192 2 2.481605437659176 13.872652287564275 10.884084079964497 1 0 1
193 3 1.4143534269562499 15.638308120801895 10.488572561948764 1 0 1
194 4 0.7023924513062859 0.03788911541651206 9.798704941820688 1 1 1
195 3 2.6968288745475952 4.76282189812956 2.325283633541552 1 0 2
196 2 3.585640702869075 5.074434637857336 1.7243666795151331 1 0 2
197 2 1.7625944599677887 5.123792781121817 1.810061578759224 1 0 2
198 2 2.7350609312405774 3.692229926517415 2.5832361585211348 1 0 2
199 3 2.7689963168623506 5.439032265869737 3.6423588323143243 1 0 2
200 4 2.613289666705584 6.085478302134012 4.598366975229467 1 0 2
201 3 6.09613022533023 3.491320530609751 15.252467224924592 1 1 1
202 2 6.289264242978381 3.4459589351263467 14.153600851316504 1 1 1
203 2 6.994352448208087 3.080957280671276 15.824783619955497 1 1 1
204 2 6.084340906739738 4.591749694777528 15.494804763880076 1 1 1
205 3 4.870870238801859 2.897167917794796 15.738749630607831 1 1 1
206 4 3.794638024539112 2.535471807810739 16.077059400677363 1 1 1
207 3 14.65493656706228 0.2098328422546103 2.0936665335582645 1 2 2
208 2 15.498150460413065 0.4699051554533975 2.7190507297102138 1 2 2
209 2 14.101772339043677 1.1819376810452304 2.0552300103986365 1 2 2
210 2 14.98122967273494 0.06216299677678569 1.0260959590962013 1 2 2
211 3 13.867923866711612 15.325222307120134 2.595206467724421 1 1 2
212 4 13.123876834777601 14.439970975612876 2.865437834240157 1 1 2
213 3 10.544697943626197 0.3117592269289285 3.424611309337086 1 1 1
214 2 11.313071266546912 15.798664603736691 3.1125267996935544 1 0 1
215 2 10.009353813958578 16.023706370169155 4.307172023751763 1 0 1
216 2 10.859938248745236 1.3232847397148837 3.7658366615351047 1 1 1
217 3 9.506665699678145 0.31423016177044144 2.4477797966087356 1 1 1
218 4 8.644989826221439 0.22811316075432136 1.6898991635064837 1 1 1
219 3 5.066591277378775 1.4737880768571576 12.634419961486625 1 1 1
220 2 5.119860075135874 0.9994838112875662 13.627030136295312 1 1 1
221 2 4.477189158838876 0.840844305689887 11.918129059990322 1 1 1
222 2 4.499533215129621 2.39785048513805 12.620621099782829 1 1 1
223 3 6.364158842373577 1.6820238681480149 11.955775633683693 1 1 1
224 4 7.448939100122918 1.704887876492118 11.500220786675897 1 1 1
225 3 11.350061688163963 2.5585739134826064 0.11139959900975764 1 0 2
226 2 10.402333857864067 2.6415463561249877 15.676142000700379 1 0 1
227 2 12.1780944405514 3.0578143366894253 15.796912510845484 1 0 1
228 2 11.130475306815967 2.877387442151064 1.0899302422191819 1 0 2
229 3 11.706631825783159 1.1277314350383265 16.189212960461038 1 0 1
230 4 12.139352656140113 0.05699441058990898 16.105202434163367 1 0 1
231 3 5.88247004644697 11.835343530234171 8.85900306195786 1 1 2
232 2 6.619205340751821 12.249536148186097 9.625084783404454 1 1 2
233 2 5.925382936583711 10.789600723784455 8.554368493988258 1 1 2
234 2 4.9210158494022735 12.057141924275818 9.318920089116256 1 1 2
235 3 6.017940280262109 12.567763162053303 7.6352309595793 1 1 2
236 4 6.070115611947044 13.178197651197696 6.670390108207303 1 1 2
237 3 15.704991575552393 8.003034567987314 13.06273529001794 0 1 2
238 2 0.2788568829665718 7.940419650676663 13.81817305442702 1 1 2
239 2 0.02348412201364809 7.7493247251398305 12.138586044387214 1 1 2
240 2 14.979938215318269 7.208214640411127 13.33322699364159 0 1 2
241 3 15.065194382978358 9.259630345438255 12.847575277584554 0 1 2
242 4 14.483880246619936 10.26161392571207 13.026237814916474 0 1 2
243 3 1.359313763283235 6.701483263602662 7.926025605385261 1 1 1
244 2 1.3442647801614673 7.784789538668342 7.851695643578105 1 1 1
245 2 1.0112379387170607 6.385303280960247 8.921123525456256 1 1 1
246 2 0.6345603633201067 6.351722438584892 7.072452181483195 1 1 1
247 3 2.7061324659676975 6.312515065958951 7.626322396646841 1 1 1
248 4 3.8413078973453656 6.194143539962187 7.406888601106746 1 1 1
249 3 13.419351857015002 7.457858095972359 6.77970892192224 0 1 1
250 2 13.95860646132923 7.573070660362349 5.838626693973213 0 1 1
251 2 14.071615729289986 7.278161228036936 7.667409210337944 0 1 1
252 2 12.877607882532798 8.35873477146414 7.086713725596216 0 1 1
253 3 12.422852463905901 6.453386085615559 6.532619301282525 0 1 1
254 4 11.645720381048529 5.577346148868586 6.2634395847697535 0 1 1
255 3 9.888035935953951 0.7075447708212442 9.99098821066769 1 2 1
256 2 9.745270436996575 1.6422363053023568 10.591038370033363 1 2 1
257 2 10.584755745132048 16.188431977646403 10.535777203766024 1 1 1
258 2 8.956015796631098 0.2557835531725507 9.727713641231047 1 2 1
259 3 10.443565549842198 1.0666298846994733 8.61750884191887 1 2 1
260 4 10.980077309814384 1.2539821933735482 7.562729972667938 1 2 1
261 3 9.022412328157584 3.8024762947957744 5.136232471792155 1 1 2
262 2 10.060969235050774 3.5431044147071122 4.881219067539786 1 1 2
263 2 8.84981255500841 3.9128610169918057 6.213707305704471 1 1 2
264 2 8.649261527824413 4.75492859233565 4.684089780883297 1 1 2
265 3 8.221263504904698 2.6663003369808216 4.704306002723692 1 1 2
266 4 7.444804772914499 1.856710145524157 4.383222633819981 1 1 2
267 3 4.325116615565911 9.254058101723924 14.60963910202437 1 1 2
268 2 4.922716227315131 8.683553914484627 13.940344309632328 1 1 2
269 2 4.843396847910621 9.253024290882855 15.54222038195499 1 1 2
270 2 4.421234877004019 10.296711235862047 14.29789823029396 1 1 2
271 3 3.0061026096582104 8.771512231084463 14.745228989119234 1 1 2
272 4 1.9316611641708754 8.351404828652328 15.097311078569387 1 1 2
273 3 10.798736169825649 13.698674061284667 9.916363212111069 0 0 2
274 2 11.328147260837106 12.890068818342602 9.423922969550443 0 0 2
275 2 11.135569175445944 13.871254159800776 10.954481494809508 0 0 2
276 2 11.07755709854386 14.550589969614151 9.297577918281354 0 0 2
277 3 9.35190669686389 13.65147010652699 9.98726013082652 0 0 2
278 4 8.195785602252432 13.590626615446949 10.172884850516937 0 0 2
279 3 7.360305327049854 7.812509469996603 0.779316154510561 1 1 2
280 2 6.302666371405647 7.750798686837316 0.6210827266554285 1 1 2
281 2 7.494413023647582 8.185684354597083 1.7627643652259684 1 1 2
282 2 7.691599582569306 6.7505493795891285 0.7162262409266078 1 1 2
283 3 7.928650018643757 8.599178679213546 15.908075269266096 1 1 1
284 4 8.175432578542864 9.021237839793061 14.84661472406665 1 1 1
285 3 2.821996544033794 12.737160131211997 5.839602952154957 1 0 2
286 2 1.8973317193725299 12.134771114975951 5.826263015761159 1 0 2
287 2 3.7720368070767285 12.189111255959443 5.575874362089099 1 0 2
288 2 2.7912407257601557 13.521496037881759 5.0636893307139434 1 0 2
289 3 3.04610023899541 13.152699169157138 7.223521988607104 1 0 2
290 4 3.1226634738594057 13.361670613611366 8.352860566557105 1 0 2
291 3 1.589929727873647 0.23433487529623165 6.3805212694944204 1 1 2
292 2 1.705945949985978 15.364698284196479 6.735552528876183 1 0 2
293 2 1.773785143588426 0.9218051903687955 7.229829003955874 1 1 2
294 2 2.4323509548729043 0.5787273846365099 5.714267024263484 1 1 2
295 3 0.3346828733023614 0.5154440294462931 5.761017520406675 1 1 2
296 4 15.486419860360426 0.7573867550791287 5.257836481091228 0 1 2
297 3 6.878263417615774 6.497117201801424 13.75785566959859 1 1 1
298 2 6.991973501687125 7.59039639374721 13.831978562827736 1 1 1
299 2 7.597051228680364 6.133692787461293 14.51108592279083 1 1 1
300 2 5.9155521599978655 6.199808321075779 14.087656237159733 1 1 1
301 3 7.3032166347035625 6.1348861471703735 12.431252840909481 1 1 1
302 4 7.644209572769935 5.884346663516473 11.339994926079907 1 1 1
303 3 13.578114513473395 15.740465988867975 13.334637261283342 1 1 2
304 2 12.940626469536234 15.677087933031123 14.227793332009668 1 1 2
305 2 13.093109656480573 15.103723671682705 12.509208547736531 1 1 2
306 2 13.625705623061389 0.5863518324426948 13.002061502002878 1 2 2
307 3 14.917722634685804 15.255935950666244 13.564031493233644 1 1 2
308 4 16.04855260408013 14.991079608305537 13.598332803795062 1 1 2
309 3 2.2349811809353786 5.0334802263107346 14.576354371043154 1 0 1
310 2 1.6017252071215229 4.514965549916591 15.31701035349846 1 0 1
311 2 2.5418549327267908 4.31419891575004 13.863465172946107 1 0 1
312 2 1.718551095730917 5.825461723522709 14.044153809002754 1 0 1
313 3 3.399378781519288 5.607580667215903 15.293906842839041 1 0 1
314 4 4.311119138391018 6.096297222201379 15.844515432882087 1 0 1
315 3 6.704701441638117 4.059220342725013 9.422905717937194 1 1 1
316 2 7.551921486680524 4.715056064951248 9.717115214470477 1 1 1
317 2 6.313278080694145 3.586960711533364 10.331838979030767 1 1 1
318 2 5.8824244584161205 4.616957193568986 8.903521163012929 1 1 1
319 3 7.188660136756716 2.8689310072595906 8.684099493246865 1 1 1
320 4 7.600178402050022 2.0082292961747545 8.009858301698053 1 1 1
321 3 3.3969812972971236 9.099021224261596 5.353998778266259 1 0 2
322 2 4.504970531513773 9.148459667979159 4.952490711688794 1 0 2
323 2 2.7125316468838054 9.637185748922622 4.691342341181015 1 0 2
324 2 3.0845156013584285 8.056478814006999 5.319713133841748 1 0 2
325 3 3.472240177593311 9.505079716786847 6.727253899695244 1 0 2
326 4 3.5635429974052784 9.916375631473157 7.832255836438416 1 0 2
327 3 1.3540535287196749 3.209507887718731 8.666540734412031 2 1 1
328 2 1.5575347585035928 3.4483454351978113 7.6264433988486635 2 1 1
329 2 1.0752419502247994 3.994091069288247 9.325539253727378 2 1 1
330 2 0.5616683491628427 2.435990705306201 8.57891829333861 2 1 1
331 3 2.6241346163876056 2.6735002558081895 9.089622940892781 2 1 1
332 4 3.632096965971842 2.2579656193723845 9.531081883460212 2 1 1
333 3 8.331385741176558 3.6375403723004744 1.7731388161513704 0 1 2
334 2 9.177078891772583 3.4996111263804144 2.457425273339236 0 1 2
335 2 8.164862500212799 2.6504950482894922 1.2229746277661848 0 1 2
336 2 7.507931069821721 4.015093957063243 2.3609475755200213 0 1 2
337 3 8.68883257480963 4.521418417803282 0.7506645811163902 0 1 2
338 4 9.047532354865972 5.140919065791855 16.036832637318067 0 1 1
339 3 10.098872824792819 7.097464397855025 13.231364842683659 0 1 1
340 2 10.097483134088415 6.528308021728163 12.247881230862705 0 1 1
341 2 9.43147848094433 7.997750255970122 13.128093492239865 0 1 1
342 2 9.732891146432268 6.530081810302172 14.094908542251758 0 1 1
343 3 11.457955450575849 7.426932675728217 13.503946088339251 0 1 1
344 4 12.623594553694197 7.656714608809413 13.511741446905916 0 1 1
345 3 14.317825707664392 4.8912121534193735 14.470133695551386 0 1 1
346 2 13.97857016198144 3.910444405999349 14.154422860198903 0 1 1
347 2 15.266245901940648 4.837615181887607 15.033860467836094 0 1 1
348 2 14.553389392506132 5.575393749601914 13.596405775460026 0 1 1
349 3 13.336779477314142 5.468664252622882 15.269258536570144 0 1 1
350 4 12.518119719058506 5.768873595151621 16.055016425386697 0 1 1
351 3 10.638185057600314 13.862698985874655 0.9470896435142833 1 0 2
352 2 10.174815514219283 14.149775950769703 1.878310710552883 1 0 2
353 2 11.166395216948219 14.721006269290877 0.5907898878461662 1 0 2
354 2 11.241670798305284 12.988112813019933 1.2089981396814187 1 0 2
355 3 9.630843185875348 13.387154985344399 0.0209895750498883 1 0 2
356 4 8.804893952290822 13.029303420027498 15.479461675718348 1 0 1
357 3 11.809109277666408 9.734333955502331 10.814971946816776 0 1 1
358 2 12.561876599015081 10.109881851616208 10.117570196511329 0 1 1
359 2 12.298096555157269 9.774062820293036 11.801729411469088 0 1 1
360 2 10.961206806587104 10.364548497271882 10.983305849770108 0 1 1
361 3 11.5400827946234 8.340432414510982 10.416579059688896 0 1 1
362 4 11.488282074098123 7.27412445938585 9.96684854332733 0 1 1
363 3 11.192749441548356 8.349219564142663 0.5599162082079441 1 1 2
364 2 10.463470274268087 7.539666103491317 0.5029903846176003 1 1 2
365 2 11.978227140928587 8.236257845309366 16.005819142559254 1 1 1
366 2 10.746533804445559 9.36966030276458 0.5398139848889105 1 1 2
367 3 11.751379089771707 8.305421826331932 1.934144291672446 1 1 2
368 4 12.27148002881172 8.309077794146921 2.975155515529212 1 1 2
369 3 5.2206311532505385 3.474176025983716 6.107462786388787 0 2 2
370 2 5.726520833894305 2.5676433483904995 6.257348443178678 0 2 2
371 2 5.24939084626103 4.122390123975206 6.909016488931116 0 2 2
372 2 5.7018986459860015 3.796540309296928 5.186007024678862 0 2 2
373 3 3.8342276162059954 3.216817273926843 5.937238535554633 0 2 2
374 4 2.704334928999952 3.009044868354107 5.797463074898543 0 2 2
375 3 14.798853008991564 8.073718797698117 0.6527997708907609 0 0 2
376 2 13.890708741641992 8.426482008664854 1.1687887103958836 0 0 2
377 2 14.692579493196583 7.97145048705943 15.755106075891293 0 0 1
378 2 15.569818923255848 8.82896547274327 0.8231516079776026 0 0 2
379 3 15.456922600897498 6.829390838335342 1.0592429239030914 0 0 2
380 4 16.12156730669252 5.861138800096756 1.2476051607934782 0 0 2
381 3 13.65572351588868 2.8943857193660905 7.10439804263892 1 1 2
382 2 14.627868997677322 2.3932298890165544 6.968389316804323 1 1 2
383 2 13.065996665401311 2.2029069596793027 7.725446623092501 1 1 2
384 2 13.633376222082186 3.9073631186069724 7.466832741395299 1 1 2
385 3 12.862889716077579 2.829076069970455 5.915646512349447 1 1 2
386 4 12.199812743879836 2.748423324767227 4.923962769432281 1 1 2
387 3 3.293234438597619 11.724876384638877 0.8457705753594521 1 1 3
388 2 3.0153769471006915 10.701527398198134 0.6720464203125134 1 1 3
389 2 4.0531618653983434 12.070749144263653 0.13603954369606555 1 1 3
390 2 2.3835902463536023 12.330471565763503 0.7103286016656609 1 1 3
391 3 3.7693448665467932 11.896419835147936 2.213643099858793 1 1 3
392 4 4.195765249802242 12.035837444676655 3.299235061783482 1 1 3
393 3 1.3180737990750133 2.0151988807248467 12.786682595878972 1 0 2
394 2 1.5829483571456084 1.684236809889848 11.729761366228514 1 0 2
395 2 0.6653267649767112 1.3001168855279501 13.33604214537386 1 0 2
396 2 2.1754112580455494 2.281283611463241 13.441607472247084 1 0 2
397 3 0.48479648439081646 3.1326359978210165 12.627965904597708 1 0 2
398 4 0.15026379291981376 4.18530006363721 12.248606276008573 1 0 2
399 3 7.190994461951127 11.64105465562718 12.836312383027916 0 1 1
400 2 7.743194233822984 11.821838690323698 13.72723580548136 0 1 1
401 2 6.303112699642265 11.091213792560264 13.173621181945713 0 1 1
402 2 6.8383445866233865 12.586605073532384 12.454241718916807 0 1 1
403 3 7.996880754763019 10.850508930407257 11.960603789961368 0 1 1
404 4 8.846006418204764 10.316978363550824 11.374382239920234 0 1 1
405 3 10.594602996350158 10.890404416383326 14.036165246781213 0 1 2
406 2 10.320477706714483 10.977942787372626 15.111231955254484 0 1 2
407 2 11.403883164784698 10.14416100518456 14.027967502301538 0 1 2
408 2 9.835369617748112 10.490610615839948 13.354067694856418 0 1 2
409 3 10.982300873370475 12.205635513559702 13.634596315463078 0 1 2
410 4 11.359023077169873 13.28848199196735 13.381647582678864 0 1 2
411 3 5.2914219406522385 14.990534517634472 4.045186966891747 2 0 1
412 2 6.27133685508169 15.478662308705122 3.8650540629041292 2 0 1
413 2 4.604992468500816 15.294023186534796 3.283253816456007 2 0 1
414 2 5.3318734595349895 13.90089307429112 4.065272848552025 2 0 1
415 3 4.9172822077317155 15.6252009298352 5.241711839653236 2 0 1
416 4 4.594670520367799 0.023995967156750328 6.2122112468469215 2 1 1
417 3 10.152621277926361 4.796577175109547 8.708661461670255 0 1 1
418 2 10.696781284851768 5.716692509839975 8.434950345916125 0 1 1
419 2 9.229974483192759 4.735060197362951 9.332301046029215 0 1 1
420 2 9.97807508258246 4.3047275746085205 7.735622474333202 0 1 1
421 3 11.082168199676527 3.981116979225064 9.476940583749819 0 1 1
422 4 11.706189343858128 3.285982178008775 10.12923673270494 0 1 1
423 3 2.5000052773964176 16.01071648536058 15.171516101115046 1 0 1
424 2 3.1053107628974383 16.116171616605754 14.199912325532525 1 0 1
425 2 2.095375632722869 0.7887746172292563 15.518661525838734 1 1 1
426 2 1.7549298830991182 15.26873491390331 14.919168750304298 1 0 1
427 3 3.428705057541719 15.455793208319365 0.008375714277583058 1 0 2
428 4 4.180657315015994 15.102097464637177 0.8149106110023556 1 0 2
429 3 6.590790667494211 13.447176178804355 1.3335614166586536 1 0 2
430 2 7.339869827347539 13.9308363033863 0.7263363293846508 1 0 2
431 2 6.9225836426591485 13.345106970493312 2.4220078081057825 1 0 2
432 2 5.698661943336981 14.080674546393125 1.3034281070747091 1 0 2
433 3 6.3834018409093805 12.03576242057468 0.9437310439177712 1 0 2
434 4 6.1618231301574635 10.962111404281332 0.5200627001436908 1 0 2

Velocities

1 3.12580719 1.38924451 -2.20968784
2 -111.13314308 38.84871847 -51.93735539
3 2.27678495 0.20481931 -1.20548992
4 -31.26704210 -13.66013781 -6.40352545
5 5.37220020 -22.85530806 -15.10960764
6 -4.54896089 -16.70742152 -24.63835062
7 5.24795345 -3.88370035 1.92462740
8 -0.49726293 -5.33832817 -4.22044846
9 -3.27518675 4.13884434 -4.19700498
10 13.79145954 21.16723430 -10.08880577
11 -15.70301190 -38.32487889 7.04111257
12 12.53785732 -9.31983578 37.01497863
13 -3.81671321 2.91973945 -2.97606168
14 1.59469106 0.35753561 2.29438534
15 -5.23526842 -3.95663454 1.37183958
16 -14.56664691 -18.19794168 0.16516708
17 24.52451126 -4.79644753 3.96133987
18 -10.12629136 -6.25018531 -5.12036469
19 -1.91899230 1.76248601 4.01613277
20 7.88066115 4.74313840 0.63846437
21 -3.89472242 -9.74512843 8.19899837
22 4.46741399 8.37046367 4.28867071
23 22.18110948 -18.34605017 7.63254359
24 15.08682783 -9.42780442 15.39263819
25 -8.61277288 0.31058231 -4.51534931
26 -7.71651141 4.39447767 -1.06036064
27 2.79763715 12.57369992 0.52641171
28 14.24395417 12.92537499 25.68067648
29 -23.37737662 12.64443990 -1.93427638
30 -6.41085887 -2.34854820 -20.25057450
31 4.06646354 -4.98922733 0.72378989
32 -6.33664616 1.47165283 -5.54089018
33 -5.54689470 -3.06877359 1.33855801
34 -12.02049469 2.09664372 -19.27873545
35 10.33495316 -7.66105021 -2.48037445
36 -17.46891804 22.77631400 8.10348554
37 1.14394274 0.06389347 -0.97317539
38 -5.41879865 7.42345631 -7.58825806
39 1.95268584 -7.13389155 -3.01919880
40 20.39941734 -6.86029003 -0.72548302
41 -7.92637629 7.47054297 35.13108989
42 -19.41067390 13.07440244 15.77414715
43 -2.27786155 0.62004133 -10.62378570
44 4.87224328 -3.58451536 -2.46111742
45 -0.02924871 3.69963639 -0.06764418
46 -18.23324757 8.24181360 9.41162802
47 17.65450595 12.87800917 -4.95621544
48 -16.43843633 13.38810780 -20.92127236
49 -7.22929793 -3.03789253 5.65955037
50 0.25044871 -1.15429307 5.71177591
51 1.84571113 0.11374471 -6.06509418
52 -1.53279802 6.63790422 1.76753598
53 -7.38938305 -18.46031606 5.16945092
54 -4.08232758 -5.77623022 -22.11913731
55 -0.36110579 2.65320222 -0.34183960
56 0.48722320 -3.97534425 -2.24085870
57 -3.80471687 0.49886275 1.36429357
58 0.40496316 -17.66498628 10.78835801
59 -0.71821725 -24.68414138 -2.23962064
60 15.02990157 12.20685483 3.49538464
61 -6.62998423 -3.87686680 -2.02203271
62 -0.55713203 -3.84456682 -2.39972878
63 4.24125162 5.78014905 -7.61636096
64 16.10226514 -6.44260535 -23.66206691
65 -14.95459011 18.47211304 22.66958205
66 -37.76203555 19.73450623 -14.06898306
67 -5.05859349 -7.52993652 3.03285397
68 6.61532278 4.94301558 4.15421719
69 -1.49033040 -0.16360760 2.43885747
70 -6.56540451 -14.30484745 9.24245501
71 5.64711323 18.71135585 -4.25578055
72 21.23915433 19.45574036 16.67654275
73 -1.00444293 -8.42757761 4.82454408
74 -2.29711258 -0.84993398 3.37570127
75 9.62873554 2.02236177 4.69241859
76 -19.07085051 -29.09229593 3.41097047
77 8.17879768 19.41638548 -3.71658402
78 -10.06546268 -9.11654959 25.61168488
79 -0.53388405 -7.66695697 -4.22492019
80 1.05576266 0.12520581 3.44825719
81 3.18548032 -2.67022776 7.77439832
82 -10.69866748 12.66491685 -3.26704778
83 10.42451207 -35.92482725 -34.66671151
84 -36.08018535 3.38934068 8.03598580
85 -5.66109223 -1.12209840 -1.22758232
86 3.28168377 1.23319912 -1.29771757
87 1.45693773 4.48299053 8.06819520
88 -7.97851953 -2.56993776 -1.68485633
89 -34.63919278 27.88310942 28.14003973
90 -1.38222873 15.18204366 -7.01652767
91 11.98898617 -0.29238729 -5.79241402
92 4.06840171 5.26989044 2.93423068
93 1.15138104 -2.03481362 -1.81525962
94 -0.21996209 -23.25335180 10.30008991
95 5.51842199 -22.80675307 8.01232338
96 -2.38412256 -0.32594658 -22.07619479
97 2.00600061 -2.10379926 -0.25137938
98 -7.87643161 0.00899180 7.49196112
99 -1.54034847 5.29287060 10.94747937
100 -3.74839123 -2.53634458 -9.91331339
101 -4.75469288 -6.11507330 4.99681715
102 -0.24850330 -13.33228116 4.71823392
103 -6.78793547 5.52881331 -1.73046280
104 -3.45750263 3.33424871 10.99171467
105 7.63381758 -2.66728087 -0.40991589
106 24.05396712 2.27676082 -4.69799412
107 17.19896093 -1.74213488 24.77195802
108 20.71297556 3.52524559 -24.62195391
109 -0.27183873 1.60099072 -0.36244362
110 -2.86516438 -5.13008334 -2.47850262
111 -9.25222678 -1.64328714 -2.35566222
112 -15.63314134 20.48896168 -10.24077731
113 4.58505325 -15.68585903 4.09424641
114 -7.61193717 14.08182486 22.38882409
115 -1.36233815 -0.82087595 -3.17798081
116 7.14355045 -0.27790210 3.35211378
117 5.84365387 -0.62448392 -1.10518452
118 25.25612673 15.83529952 4.65952233
119 0.81668141 7.66788011 -15.93665060
120 21.64130428 -16.42021902 10.81981734
121 3.15707267 1.47353291 0.87632857
122 -6.14435662 2.74311862 -3.27005935
123 4.75112268 -4.65922637 5.88613384
124 4.94152388 7.10673649 -6.58435832
125 18.95807414 -31.55791254 -3.59982041
126 13.14487232 6.82608903 -7.66182522
127 1.94681568 -3.00194368 -4.13561678
128 8.64130971 5.69514353 -0.13375419
129 5.29539879 -3.67392282 -7.54398663
130 -17.22892051 3.88747487 -8.42624926
131 -6.38377337 -5.64798803 15.75694422
132 -5.16224116 8.64766956 16.63649881
133 1.77472129 5.20800300 -3.72267722
134 0.34803755 2.72883689 -7.50215167
135 -5.14537967 -4.24941084 6.78474747
136 -2.63586493 8.89700635 2.01651662
137 -26.14966818 -3.35396596 1.43146711
138 0.97061971 -18.22221893 12.31242461
139 -1.57466082 1.11475797 5.26696471
140 -0.90797277 -1.06395745 5.96879010
141 0.40153479 -13.20327742 2.48004034
142 -17.96976971 -1.56546880 17.63498985
143 -2.07655961 6.68234698 -6.21292592
144 -12.47926611 -29.47813378 10.01858287
145 7.06154386 -0.83968430 -0.42915710
146 -1.63823735 -0.35473746 -4.91404197
147 1.80965912 -7.36547954 -8.67563582
148 17.99775174 -12.76388168 31.14526745
149 -1.74701310 -31.00743266 -6.40457273
150 9.21389270 4.70458810 -8.91895063
151 1.66770269 -4.26474110 -4.95141025
152 -2.80109167 5.41806017 -2.32904297
153 -0.08188806 1.06615724 0.78346092
154 2.57593897 11.44359286 -5.13108570
155 -8.69231315 15.96413338 1.39496461
156 -2.25346130 -18.60159950 -3.55331133
157 -4.20220182 -6.75131764 8.38156342
158 2.19224995 -9.55927637 -8.66237487
159 -4.54096057 -0.83878650 7.00926006
160 11.25969765 6.78396766 -31.23613388
161 -4.97820627 20.83532697 11.48300617
162 -5.15766156 -21.52102956 -2.86935090
163 6.02904659 0.38968907 -1.06289197
164 4.93108029 -0.06417468 3.40913115
165 0.57128607 0.10583244 1.67139762
166 -5.70834522 -25.19342350 19.97571002
167 0.34624263 -38.26242391 2.03683623
168 15.30632955 28.29156726 -8.59494301
169 -1.69546524 -8.39505578 5.75671299
170 -1.21221255 -0.79173784 -1.95666242
171 -4.46502293 -6.44189000 -5.21970377
172 24.06439647 -6.22945749 -7.61798373
173 15.64774758 -10.36299139 6.42909562
174 18.00237364 7.21514144 -8.59097172
175 -5.48162054 4.56017630 1.91729069
176 -0.47687463 2.12198351 1.53181239
177 3.23902784 0.78055149 4.11645287
178 -15.58764953 13.07851249 -22.00810618
179 -2.19826246 -12.15573753 -1.23396314
180 8.94517450 7.48755562 -10.86012918
181 -7.76368421 3.93495351 5.18967766
182 4.53028974 -1.75631383 -4.45934664
183 1.39164472 -7.35332624 -6.03396368
184 37.61993918 6.69614474 -9.71493463
185 0.11088865 13.38771715 -6.69750720
186 13.49277267 -3.68038480 16.60567099
187 -5.34935019 3.23113326 -4.60049385
188 -1.13401437 2.67602554 4.16743808
189 -6.16319486 2.74220113 -8.16573704
190 -24.16195270 7.71602068 -14.44803643
191 -24.20965745 -7.95276748 14.20801508
192 -15.73486515 16.00710093 14.83370917
193 1.13226372 2.75974687 -5.66831371
194 7.60167118 -1.26240107 3.96986173
195 -9.16986895 2.76365537 0.59746521
196 15.03646173 32.66016066 18.44247927
197 20.43420420 13.35359091 -9.15144110
198 6.80734411 10.50617170 -7.99573899
199 6.45997257 3.12345083 3.10391878
200 -3.50977414 -3.50386127 -5.55463972
201 -0.13293597 0.58362559 -0.01580673
202 4.23617275 -8.50734387 9.48192295
203 -18.07612595 -2.75135172 11.87144609
204 -27.51932276 7.18212946 5.99241358
205 -2.27384128 -1.60225752 4.55998859
206 7.64073102 2.47005061 0.14802009
207 0.21316247 8.34647095 3.94516882
208 -11.62092368 -4.28637008 38.38940661
209 -4.67362589 1.87359760 -3.93164631
210 -2.04985582 -6.99865894 -12.14004474
211 -5.02051586 5.19550393 -4.28916358
212 4.83363407 5.42281274 -0.62395853
213 -8.67878090 -3.18345978 -3.43305578
214 -25.05472764 20.01175919 -18.12638721
215 -2.11005201 -0.59451562 -34.21095336
216 5.24330484 3.06018931 5.46054884
217 3.87410750 -0.86667574 2.62552884
218 -6.17095163 -0.77356316 -2.14604227
219 4.16711145 0.55868077 -11.09262116
220 2.10392324 -3.18843788 -25.20824670
221 -25.23846475 5.74734813 -21.02696114
222 24.26865098 -6.10935041 -2.02677791
223 0.51394232 2.28826662 -9.73990602
224 -6.17499697 1.15889616 0.86789559
225 6.91386458 0.99037799 10.50922123
226 -13.21585222 1.08203188 16.98059937
227 -9.89702438 -9.02673399 11.72512185
228 7.80542015 11.10300980 2.36711200
229 -3.96107250 -3.20279217 3.50772943
230 -2.46207839 -0.80385419 5.73927404
231 6.75358429 -0.83971334 -2.60169945
232 24.22702928 25.71921468 -37.06500427
233 -23.48902613 -8.23627833 -3.73872024
234 -3.87870501 2.02404069 2.80032014
235 8.21355714 -7.94256951 0.15572638
236 9.36887728 -2.40177352 -4.98909993
237 -9.25982672 -1.96963864 -2.73071941
238 -20.16658371 -14.95645738 0.82595256
239 -0.81617650 7.59563982 19.47575065
240 6.31921683 -11.18854157 5.83138310
241 -6.07872029 0.00216747 6.02841341
242 -4.17069705 1.29384058 9.13111977
243 4.75561532 -4.81807606 -0.92074760
244 9.13867328 -10.48198443 -4.09443300
245 9.21228291 0.59700558 -25.74055674
246 9.50945897 -7.19413005 -5.63811911
247 -1.72749868 1.13065128 5.04152307
248 6.88237608 0.04490286 -4.12380330
249 -0.87360853 -1.43599164 -1.60691808
250 -7.74306047 -4.77190262 -15.63622060
251 -4.16084775 2.68533762 5.30987714
252 14.02915789 -1.51840693 -0.76369303
253 -4.80190645 2.79991496 -3.11651087
254 7.20147680 0.88018940 0.21488479
255 6.94409581 5.72030649 1.84566870
256 1.40040268 -18.57257845 -8.83727932
257 1.22568179 -6.89456129 0.82553796
258 -3.66530136 -6.65130842 -26.74719085
259 1.23917907 3.53176632 2.30683095
260 1.60936550 -6.30957290 8.23152556
261 3.05988983 4.60971357 -1.43038444
262 16.87982717 -9.05102686 6.36460425
263 -4.12574478 10.40002752 -18.27209170
264 6.79027500 4.11863102 -5.24714399
265 1.70468009 0.35602251 4.80860947
266 4.25016848 -1.04655407 -7.02424563
267 4.42399232 3.00072531 -6.60999381
268 -6.72336638 13.34485177 -3.47139318
269 -14.85466028 16.43104073 9.71925542
270 -7.10471170 -1.60449408 8.55029169
271 -3.46761852 1.87501722 -0.53202478
272 1.55191117 1.53240342 0.73037085
273 0.71848034 -2.02035904 -4.53800477
274 12.26498125 -8.86704579 0.83630043
275 -9.36120319 -0.31761955 14.41748134
276 -0.01156087 -7.42354789 11.77386527
277 1.73659856 -0.97565549 8.21698306
278 5.50928873 3.63084600 1.75888276
279 2.82615577 -6.57035265 8.32775491
280 -21.61255417 3.94414157 -8.97775560
281 13.26906567 0.96503125 -2.95960799
282 -14.88674070 -18.06869025 -2.66057842
283 -6.24271538 8.04400472 -3.05394256
284 -1.45332570 0.01527545 -5.38567969
285 -0.99223906 -2.96271989 5.11928491
286 10.26103826 -54.82430224 -9.24264280
287 24.28809898 11.73808284 11.44296836
288 6.51431245 0.82469602 -21.10467820
289 -3.42476479 0.57940960 4.86523880
290 -3.55366473 -3.13298985 -2.52611957
291 -1.92076042 2.99860243 6.27089531
292 -33.28442960 8.97287479 13.23814541
293 -21.09422323 -50.51724012 -37.33953761
294 1.91413573 -12.71089733 -23.80176564
295 3.04292130 -0.27137796 -5.65674266
296 9.53197611 -1.89001330 -1.14923853
297 1.08452500 1.75473391 7.78489095
298 25.23359016 -9.02221559 4.99756502
299 32.49534304 -21.82428256 3.97227289
300 16.95640548 -15.27325520 -5.11219590
301 1.43713564 1.96972291 6.93300117
302 -0.47468206 -1.99312274 -3.73520184
303 -1.33384893 -5.83254156 4.95143741
304 16.10462103 -26.87149930 7.66752965
305 -5.13553364 -5.51406701 2.75398756
306 6.76011807 -1.91515827 14.06791301
307 3.89007128 -1.41247859 -7.74668765
308 2.65047897 8.79507225 -5.50273967
309 -0.69788229 8.37134003 -1.69710484
310 13.05770464 -1.27440395 -18.98688246
311 10.35496012 -6.04678935 -1.40156796
312 -23.86369786 17.24790246 -16.53786972
313 5.66356950 -1.36311392 -6.24644247
314 -1.23674476 -4.68998383 1.32215312
315 -5.84251687 3.05075778 1.11808460
316 -9.44837070 -12.14599355 -2.05404576
317 20.73251233 36.24503472 -0.48125003
318 -10.95258017 -18.91696927 -20.13911962
319 -1.44552328 0.94472371 -4.01283989
320 -8.06968120 4.12314849 -6.23520616
321 -0.87153417 -3.57414560 -1.67279792
322 27.19090288 -26.38676107 7.01388802
323 -9.30081290 27.18120533 -26.51573070
324 -2.45596496 0.27894429 5.39616670
325 6.95677384 3.40559508 4.90562790
326 -1.63225089 -2.86955075 -0.19954753
327 3.16103346 0.19609148 -2.87198221
328 -1.99797538 -10.93516889 -13.82957113
329 -7.83372258 13.10182393 27.32424015
330 -30.94761357 -22.40809483 -4.15694839
331 -4.26449780 -7.47560505 5.79639306
332 -5.43128591 -6.02707856 0.13032215
333 2.89908647 -5.81292634 0.35050186
334 5.59666360 -28.14524921 -19.98197244
335 -15.37149807 51.39137225 -4.15741106
336 -11.00425002 -1.32914794 -9.39500965
337 0.85199435 0.92903263 1.87454672
338 6.13572472 3.27163810 2.43976026
339 -2.79940736 1.34069335 -2.61353350
340 18.47992761 -18.86642270 0.61210965
341 4.46260460 -3.28968052 -10.25211635
342 -5.26356320 -5.43287336 -16.68013451
343 4.34323643 1.53606799 2.76907791
344 0.73681667 -0.39097928 4.96076014
345 4.91849668 7.09252294 -0.86768601
346 16.83860612 18.23062739 11.92799746
347 2.83159254 23.88863003 10.55926464
348 -30.19585379 -17.35076828 -5.10769868
349 10.65563681 10.29350563 -3.86823521
350 -5.57973048 -5.12077140 0.77918373
351 2.99246764 3.76822087 4.11276282
352 -25.74118137 2.75720092 7.97760897
353 1.01532850 -6.24160856 1.95176354
354 -21.39789013 -8.06804800 -31.35839069
355 -1.00729293 4.25906954 -1.27503517
356 -1.80645252 -1.52208242 1.77113645
357 -6.28988211 -3.92684166 -2.06290675
358 19.05309928 5.52099943 1.31731483
359 -15.10890682 6.03744789 10.24944719
360 -19.06360298 -18.06203225 -16.60035184
361 8.76533706 -0.47336597 -1.57224277
362 3.51801337 9.96189341 1.81201102
363 -0.07130744 -1.88708376 -5.75308536
364 -27.58623901 2.41431010 40.69849726
365 -24.63081901 -17.67089970 5.46588028
366 2.36835203 5.18168933 -5.91717846
367 2.54015975 1.78995654 1.84032311
368 -1.77329110 1.38110181 -4.79293946
369 0.06938441 0.47626209 1.17465269
370 -19.75706110 31.95144411 29.81081758
371 -22.35518827 9.45247151 1.11360121
372 11.71547119 -15.86730255 -0.69047670
373 -7.47205283 4.69605052 4.84388696
374 5.72249345 2.64681920 0.42877157
375 1.00936793 -4.47493649 3.21958614
376 17.85139893 22.99401745 6.30081975
377 -7.09782511 -8.04272520 -8.82537117
378 8.58389230 -22.08955323 -1.73892051
379 -1.66778829 -6.65987409 3.62339028
380 -2.98756998 -3.86989317 -2.24093755
381 -1.30986243 5.54421540 1.72136725
382 -3.85045878 2.57772397 19.26246484
383 -26.40055464 14.65895349 13.21587087
384 -11.53799893 -9.95492071 -11.72835572
385 4.81538783 -4.02415923 -5.32567970
386 4.06238381 7.05164295 1.37281338
387 5.17217025 0.78596119 5.92899180
388 14.18544263 17.33002039 14.54165281
389 9.47842368 7.71116672 -14.41617354
390 14.98954683 10.12194352 -14.54099730
391 -3.25029792 4.16608598 -1.19785773
392 -7.23619306 2.38725825 -0.58909649
393 -5.64020912 -4.07310850 -1.01372487
394 13.23950789 -27.29542519 11.69251092
395 16.17104120 1.12069472 -12.14665500
396 17.42585198 -11.72380119 13.04172958
397 -6.52181100 3.60081150 1.37934498
398 -0.12317866 -3.66049988 -3.35188524
399 -10.86839326 -7.81769578 -11.77423541
400 7.45480131 14.77578367 -6.02911504
401 39.34661086 18.06235004 -23.47639775
402 15.97746742 21.02697676 5.18303762
403 -3.90740682 -1.54432132 4.85734233
404 -1.42410250 6.67612332 -0.02868646
405 -1.25966450 1.05465023 -7.57709324
406 0.61968477 7.79315254 -9.01053110
407 -19.79417447 13.16965281 -23.60552289
408 -19.41561245 5.82146949 8.32872254
409 9.79919663 5.39992746 0.13763556
410 -7.99122100 -5.31159232 2.83465460
411 6.42257423 5.00231102 -6.19198284
412 -19.45535339 27.83484277 -9.11466410
413 -9.07902207 -4.19313578 -15.79382574
414 -11.46519637 -1.59489412 7.23670476
415 2.02102326 1.06765725 4.01849151
416 -0.91855126 5.56292353 -1.42583349
417 5.48127508 -4.15627185 4.72548503
418 18.27253090 -8.96775049 4.33116371
419 -18.90295181 -0.14222772 6.21052685
420 -13.22737514 27.49333743 2.20370857
421 1.37860673 -0.51253740 6.80041184
422 -0.94293254 2.48169244 3.15127656
423 -2.87108440 -5.78135414 0.73642141
424 6.92231925 -28.15859353 -4.82577820
425 -29.65685463 -6.71210098 -12.29522849
426 -30.51542225 2.80701098 14.55029455
427 3.03966927 1.11486908 -6.58412517
428 1.97870768 0.09645769 0.34060516
429 -4.81977100 6.50671959 1.48461037
430 14.72044990 -6.62763615 9.65211408
431 -16.04700244 -24.85685330 -3.41602973
432 -3.41427408 -15.52329758 -25.38062921
433 -4.48542386 8.02752983 7.14280263
434 -4.92479017 2.14691948 3.42040600