LAMMPS data file

434 atoms
4 atom types

0 17.439506 xlo xhi
0 15.194166 ylo yhi
0 15.074574 zlo zhi

Masses

1 18.9984
2 1.0079
3 12.0107
4 14.0067

Atoms

1 1 12.527879289022964 0.7163652893388799 6.857142181254492 0 0 -1
2 2 13.215209524782207 1.341743440340275 7.187213952446722 0 0 -1
3 2 6.205317285761941 10.115539798444596 6.193448783892954 0 -1 -1
4 2 10.484379822406497 11.23204994535461 4.739425748032411 0 -1 -1
5 2 6.089853662521618 14.125351013856315 9.79531359686655 0 -1 -1
6 2 11.594519498543924 11.474086642541732 9.617995206753553 0 -1 -1
7 2 7.7922924827011615 14.03080497831867 10.144247503279892 0 -1 -1
8 2 10.550762736806618 12.52405835238835 8.667850431052493 0 -1 -1
9 2 7.199939698507921 8.879360320394929 5.254920878817158 0 -1 -1
10 2 11.397102851384458 12.315752233610466 5.837203998971038 0 -1 -1
11 4 7.94498281251599 11.421123669195866 3.6420682155288926 0 -1 -1
12 3 7.6363125431373735 10.817004227644611 4.595073838912171 0 -1 -1
13 3 7.2072665905591915 9.893892282221213 5.649300105222731 0 -1 -1
14 2 7.982361221063415 9.978207046074342 6.439999688934635 0 -1 -1
15 4 10.584630773269375 14.184789887274531 3.7215234628847464 0 -1 -1
16 3 10.42328581852941 13.299324043415558 4.474915246358311 0 -1 -1
17 3 10.460293383806416 12.138913897992595 5.3364668941588524 0 -1 -1
18 2 9.599600729330561 12.122332459807403 6.046611792880626 0 -1 -1
19 4 7.598496531971272 12.312117887131837 7.566658225198123 0 -1 -1
20 3 7.3267498925484285 13.14478849339464 8.342538093789383 0 -1 -1
21 3 7.077896588142931 14.239825185413181 9.339932877344273 0 -1 -1
22 2 7.242580101234705 15.132021283629468 8.79207492669476 0 -1 -1
23 4 9.890661498038169 9.811228019046979 7.491873282165515 0 -1 -1
24 3 10.139597610178232 10.607832205483772 8.281247310750706 0 -1 -1
25 3 10.56600688284224 11.638798546324816 9.306296767205914 0 -1 -1
26 2 9.805378086914303 11.655027643353574 10.109280601435085 0 -1 -1
27 2 14.271979771332534 9.651561895900034 5.695855956680707 0 -1 -1
28 2 15.133754978079082 12.403330366692554 6.064407194367385 0 -1 -1
29 2 14.421873159416505 13.642518105944534 9.712487310361727 0 -1 -1
30 2 17.43055495053866 11.273429978394477 9.602899327399555 0 -1 -1
31 2 13.485562969562821 14.871717430908785 8.859830640518057 0 -1 -1
32 2 16.274058616665876 12.255562478080863 8.730394821417722 0 -1 -1
33 2 12.464475146466402 9.778413316784068 5.7604868220072465 0 -1 -1
34 2 16.152141959321884 11.354439606842636 4.987379940489445 0 -1 -1
35 4 13.147958597887294 11.7669490395455 3.563922463503232 0 -1 -1
36 3 13.225611365403969 10.759850679981161 4.142067110648541 0 -1 -1
37 3 13.323506793210225 9.649761627091719 5.111791391650474 0 -1 -1
38 2 13.278622356648238 8.718230495577853 4.499739874280705 0 -1 -1
39 4 16.2835738187138 14.250814549977719 3.726895191690219 0 -1 -1
40 3 16.15138378021904 13.409623325510356 4.542641664919509 0 -1 -1
41 3 16.09923072235158 12.317627431659693 5.5212862821521425 0 -1 -1
42 2 16.930550979673484 12.454324520859041 6.204160399863254 0 -1 -1
43 4 13.001395179760861 12.025077894800775 7.383695879003217 0 -1 -1
44 3 13.272473572971657 12.95623139219265 8.084056962692172 0 -1 -1
45 3 13.456574961294029 13.82285238399199 9.206687425591529 0 -1 -1
46 2 12.593743141492961 13.911603597405959 9.90752390128025 0 -1 -1
47 4 16.207896377288716 9.471132827664466 7.306289797311322 0 -1 -1
48 3 16.198514444688485 10.260691690831123 8.152743101415806 0 -1 -1
49 3 16.41798862056132 11.22644628805851 9.218449465712052 0 -1 -1
50 2 15.610598542009045 11.10134985498508 9.95338406732404 0 -1 -1
51 2 1.592411621102543 8.946964760949395 5.234228201524837 1 -1 -1
52 2 5.6128996418328105 12.462354059693864 5.847170358199163 1 -1 -1
53 2 0.9812288748588329 14.120656407449896 10.031004609242775 1 -1 -1
54 2 4.53342159042444 12.696178438472892 8.411514051022797 1 -1 -1
55 2 2.7229859996820176 14.183406899531528 9.564817724347524 1 -1 -1
56 2 3.852645845074102 11.65521131886476 9.72878238654779 1 -1 -1
57 2 2.381469072088085 10.216689925152025 6.175338710941346 1 -1 -1
58 2 3.9029040945459896 12.502547539956147 6.143866889391635 1 -1 -1
59 4 1.4626338769097953 11.75167231113677 3.619303103225513 1 -1 -1
60 3 1.5446588288495604 10.922888778778303 4.424639437021532 1 -1 -1
61 3 1.5086862775935386 9.974375461074727 5.513470170317707 1 -1 -1
62 2 0.5974077689256455 10.114241206285694 6.099796791581184 1 -1 -1
63 4 4.8567032906963625 14.513647036775964 3.8981192623667087 1 -1 -1
64 3 4.652016693763042 13.581929671652041 4.552679860556242 1 -1 -1
65 3 4.623758608670659 12.390691085880428 5.34852688716965 1 -1 -1
66 2 4.544215707521293 11.50052549497519 4.710977852001112 1 -1 -1
67 4 1.5860432560265896 12.21293568701167 7.601039036506592 1 -1 -1
68 3 1.6885028059404856 13.130235936445654 8.276522536809233 1 -1 -1
69 3 1.7201977930525776 14.241771390981228 9.21469612747756 1 -1 -1
70 2 1.6028123100292975 0.05974143510274875 8.732136035182817 1 0 -1
71 4 4.364948296701685 9.698566423955167 7.513596419382113 1 -1 -1
72 3 4.553346180275736 10.524098159365801 8.29869512284318 1 -1 -1
73 3 4.658341565381475 11.742039831470695 9.045375595320207 1 -1 -1
74 2 5.650643623910573 11.8589158796109 9.504412660638211 1 -1 -1
75 2 7.586309192909654 14.072532751936643 5.097304644678296 0 -1 -1
76 2 9.50665884852976 1.754670488876178 5.888448981575071 0 0 -1
77 2 8.27537171465673 3.699167993095079 10.215680573815874 0 0 -1
78 2 11.596675317409563 0.9821838937848056 9.500631841311217 0 0 -1
79 2 7.99956131225672 4.938416995325739 8.786309540751017 0 0 -1
80 2 10.639382917059761 2.1600320154483548 8.449114234179488 0 0 -1
81 2 7.964801224962413 0.09835774619631808 6.248801525088637 0 0 -1
82 2 10.378740097032882 1.1170360864413946 4.4713010183654305 0 0 -1
83 4 7.609589350505557 1.6591371423660506 3.5913440679068893 0 0 -1
84 3 7.455190024794175 0.8818362210046445 4.468941316880261 0 0 -1
85 3 7.326546459288581 15.044886981386883 5.408065536732034 0 -1 -1
86 2 6.329093678765465 14.970210425728792 5.845628454854062 0 -1 -1
87 4 10.456272234714762 4.240290411506211 3.935034201748891 0 0 -1
88 3 10.311605142302733 3.243397143740255 4.5640758105331924 0 0 -1
89 3 10.343239581313256 1.9586829181253895 5.234453968953039 0 0 -1
90 2 11.288246420300567 1.98906206933344 5.756308303931102 0 0 -1
91 4 7.521595834713619 1.895370211013523 7.681240359035388 0 0 -1
92 3 7.541563289431406 2.8093421820966773 8.401170924632046 0 0 -1
93 3 7.677202553399187 3.866630947980585 9.31241627339515 0 0 -1
94 2 6.714670222439377 4.045276564841274 9.7656608174121 0 0 -1
95 4 10.007535975890178 14.428469581189043 7.396755839548157 0 -1 -1
96 3 10.272853739566983 0.11213254761808268 8.119902859026341 0 0 -1
97 3 10.576355677230834 1.196394728577105 9.00662514966838 0 0 -1
98 2 9.801348401214847 1.2617458488124769 9.757677475926467 0 0 -1
99 2 13.801417902981397 13.562283727255043 4.507486995174978 0 -1 -1
100 2 15.372247168140262 1.6895312675529335 5.986590739250818 0 0 -1
101 2 13.65107241816867 5.232353278181223 9.272807716135224 0 0 -1
102 2 17.360617452378456 1.3140063849875105 9.482860542606119 0 0 -1
103 2 12.590553959588432 4.166022507285793 10.184930271384337 0 0 -1
104 2 16.743263205009416 2.277731300947858 8.242741681946379 0 0 -1
105 2 13.883154124237029 14.540970118439809 5.997697802544733 0 -1 -1
106 2 16.406366153489742 0.8729451838492034 4.799210118455577 0 0 -1
107 4 13.393560339316739 1.3090885509595949 3.634443116697545 0 0 -1
108 3 13.34838307967446 0.3377949842738393 4.232037637982605 0 0 -1
109 3 13.351921017250838 14.326501497992021 5.103999562753021 0 -1 -1
110 2 12.310712344538029 14.210445747009674 5.382168784189225 0 -1 -1
111 4 16.430389288399176 3.7680371088647395 3.6066461753299266 0 0 -1
112 3 16.20605289992382 2.9348010944503207 4.408892125165249 0 0 -1
113 3 16.20288404684062 1.849754338088588 5.312231715875572 0 0 -1
114 2 17.082706198923272 2.0119114340177435 5.980255368766598 0 0 -1
115 4 14.036920746845984 2.3420940804744586 7.811617891695864 0 0 -1
116 3 13.726273179496488 3.234063415572218 8.517798855427962 0 0 -1
117 3 13.519461537669146 4.194654729540793 9.623841554969667 0 0 -1
118 2 14.29239029368822 3.973125390993125 10.323475213931372 0 0 -1
119 4 16.4430458328932 14.583937075673141 7.426515928398029 0 -1 -1
120 3 16.278786031969936 0.30453783996352196 8.121203565002968 0 0 -1
121 3 16.430552133967105 1.4605407495000151 8.933233282302782 0 0 -1
122 2 15.56452721891921 1.7510881597146253 9.494169584807624 0 0 -1
123 2 0.8321448311953812 14.637760091447907 5.981079478114946 1 -1 -1
124 2 5.66449832897727 2.297469389835961 6.014875718476021 1 0 -1
125 2 2.962081828303933 4.063968098827898 9.657674905859013 1 0 -1
126 2 3.7013510827929466 1.7392278006849864 9.81612934128672 1 0 -1
127 2 2.1478493542629953 5.1794645280772 8.483701669891321 1 0 -1
128 2 5.491994677681206 1.459805711048498 10.012242647283273 1 0 -1
129 2 1.8147608344441308 13.801868846501542 4.850213638378773 1 -1 -1
130 2 3.8221046031748256 2.4138282521077734 6.1231023272830285 1 0 -1
131 4 1.8970427029840664 1.6046863113058556 3.819450216663149 1 0 -1
132 3 1.848131073610043 0.7057396615155735 4.579694340186663 1 0 -1
133 3 1.7850707508447325 14.745422034005903 5.42630815460179 1 -1 -1
134 2 2.6260423867749654 14.777267103122073 6.107949833981052 1 -1 -1
135 4 4.701384441186715 4.1463615842607995 3.635501923601364 1 0 -1
136 3 4.839804645132462 3.340517330272069 4.488065070514375 1 0 -1
137 3 4.727824926515091 2.2665494703824063 5.424940153555073 1 0 -1
138 2 4.649112669053536 1.3788091462846874 4.820561237545158 1 0 -1
139 4 1.7176892717344276 2.2064143331526687 7.561155226550297 1 0 -1
140 3 1.8109243977032408 3.069987126999236 8.2974783024742 1 0 -1
141 3 2.049207615373489 4.249942524112102 9.067983737142013 1 0 -1
142 2 1.2617104481514922 4.34024831656076 9.834306450433319 1 0 -1
143 4 4.598689274977727 14.954041456865367 7.574444966924332 1 -1 -1
144 3 4.700095144060484 0.6972711158623444 8.226122596401202 1 0 -1
145 3 4.723083609176052 1.7195189476791224 9.273652963583519 1 0 -1
146 2 4.964225886876924 2.6284750371904875 8.684984005908964 1 0 -1
147 2 8.02912392531217 4.688168137024456 6.469562588805343 0 0 -1
148 2 10.336949168321931 6.314662721464629 5.177255668579157 0 0 -1
149 2 8.470106223957874 9.577019437534119 10.122348473141404 0 0 -1
150 2 11.47875295687836 6.63168990928595 9.82748036651007 0 0 -1
151 2 7.548169394195362 10.196951737542697 8.600682544703004 0 0 -1
152 2 10.69053676653523 7.450235102160735 8.394049887616138 0 0 -1
153 2 6.303215971824884 4.963390035601797 6.048005585399237 0 0 -1
154 2 11.172729218083635 7.314849766160915 6.345962420517282 0 0 -1
155 4 7.5168238956820215 6.842454241958998 4.114060564607647 0 0 -1
156 3 7.511601690054494 5.911597385712755 4.795854656521288 0 0 -1
157 3 7.295521526050486 4.784372814527086 5.632805593661626 0 0 -1
158 2 7.392497871487091 3.8085795866034196 5.081333793690289 0 0 -1
159 4 10.520624073721727 9.31447724149763 3.976072534661844 0 0 -1
160 3 10.44229723023157 8.469035139617032 4.796350526749017 0 0 -1
161 3 10.290334996093849 7.3371934722482886 5.684406822720188 0 0 -1
162 2 9.343700092711275 7.390925243554543 6.312405230562329 0 0 -1
163 4 7.980032550310373 7.195405667695907 7.9365414549547975 0 0 -1
164 3 7.809805880794471 8.15060353979122 8.621625551033762 0 0 -1
165 3 7.692899354919861 9.380084588886664 9.349968724253397 0 0 -1
166 2 6.724451840373077 9.412205313285323 9.855766937152797 0 0 -1
167 4 11.023904265851485 4.43689689600322 7.707702688797819 0 0 -1
168 3 10.783700998862043 5.369808342092341 8.355286645525544 0 0 -1
169 3 10.719777579616771 6.576111439927339 9.102553149858084 0 0 -1
170 2 9.753014543581317 6.555757474598198 9.637264183601582 0 0 -1
171 2 13.609148061332027 3.6429990504065013 4.705641227249274 0 0 -1
172 2 16.56201580517859 6.0824014895820335 4.470060870733712 0 0 -1
173 2 12.633155141299317 8.78426727486621 9.946459312458815 0 0 -1
174 2 16.274815376298147 7.281123935579329 8.663726309026377 0 0 -1
175 2 14.302565633395364 9.048139266507356 9.87186999777331 0 0 -1
176 2 15.823358904621815 6.063294691818898 9.880124858848461 0 0 -1
177 2 14.436043303269384 4.661087804604035 5.879068853780249 0 0 -1
178 2 17.02928004792645 7.0412988461454935 6.015956222200063 0 0 -1
179 4 13.307495196440424 6.524239484248999 3.6766148211376906 0 0 -1
180 3 13.344917482039 5.674035490958214 4.47379447695651 0 0 -1
181 3 13.488604240925302 4.522380759660167 5.316328708939947 0 0 -1
182 2 12.63187785468612 4.3719533304793705 5.974628960289865 0 0 -1
183 4 15.970952064197496 9.0875101835006 3.77303836311819 0 0 -1
184 3 16.223047638462443 8.130445665470434 4.366656070239892 0 0 -1
185 3 16.380210273412445 6.9658132676528375 5.137426409091529 0 0 -1
186 2 15.479083872744106 6.770246205600694 5.708565522099475 0 0 -1
187 4 13.591684596314295 7.152407140920554 7.443831902287957 0 0 -1
188 3 13.547914624482901 7.993284079301961 8.242455460589765 0 0 -1
189 3 13.447391774397888 9.053458040105932 9.251844646302679 0 0 -1
190 2 13.268448171498768 10.028517167940704 8.754717195592255 0 0 -1
191 4 16.425770591394024 4.462575997995751 7.125382503193174 0 0 -1
192 3 16.436949050015198 5.297531037300142 7.9186501659924105 0 0 -1
193 3 16.473568088681997 6.20494076380379 9.012626303229363 0 0 -1
194 2 0.019489666508266563 6.161530155039012 9.445715783483344 1 0 -1
195 2 1.5628910044841442 3.5502480924007513 4.671527365365745 1 0 -1
196 2 4.942554362000778 6.523482902201522 4.8920395592200325 1 0 -1
197 2 1.03270722331801 8.938301129604493 9.771323741207429 1 0 -1
198 2 4.678175713854944 7.590166640160069 8.71973025416483 1 0 -1
199 2 2.736311527348412 9.038449033536144 9.792808861651404 1 0 -1
200 2 4.114415079910655 6.67567867745145 10.10599361194559 1 0 -1
201 2 2.5781746139258517 4.2361321804732714 5.9759127628074316 1 0 -1
202 2 5.450216589431663 7.595511221078289 6.187261830023426 1 0 -1
203 4 1.918137609395637 6.613917150356693 3.862315612807281 1 0 -1
204 3 1.8517769100941541 5.640448510172306 4.439484914667512 1 0 -1
205 3 1.7670318116065815 4.455064973819744 5.327433871251583 1 0 -1
206 2 0.8730110256827246 4.507482758149346 5.933936166203074 1 0 -1
207 4 4.452982422178985 9.54953673538145 4.072626979969968 1 0 -1
208 3 4.466770022589767 8.521682599605066 4.614956570621031 1 0 -1
209 3 4.644614544027176 7.372005163155645 5.513344945278197 1 0 -1
210 2 3.7347072019895764 7.0848481806525 6.062230841202157 1 0 -1
211 4 1.805983726320615 7.100252740254259 7.472996816810101 1 0 -1
212 3 1.8644393214073713 8.040610919582308 8.151534005907312 1 0 -1
213 3 1.8539221727124109 9.14788071353944 9.125488136088729 1 0 -1
214 2 1.728922017418583 10.06671882791331 8.56348066856837 1 0 -1
215 4 4.931581787639944 4.775082211053881 7.608145992076289 1 0 -1
216 3 4.907686362203678 5.657511301893931 8.34689552455209 1 0 -1
217 3 4.896353406462326 6.706580929496193 9.33041659782724 1 0 -1
218 2 5.875526398858514 6.747531353495125 9.759155591538224 1 0 -1
219 2 7.866577180518403 8.819603689440727 12.423567803630442 0 -1 -1
220 2 9.825740606861492 12.356908167237732 13.615277050768789 0 -1 -1
221 2 8.455839718820307 14.007800015398574 2.4040942687855207 0 -1 0
222 2 11.57434947360581 11.761048698920241 2.26055338708128 0 -1 0
223 2 7.859152010222994 15.038920489576803 1.0539086192079177 0 -1 0
224 2 10.434762524550255 12.754935189215184 1.2836613535413686 0 -1 0
225 2 8.671307759894518 9.714676919710106 13.80694353215764 0 -1 -1
226 2 10.969757706949462 11.302902238264943 12.599672513482965 0 -1 -1
227 4 7.758862416971901 11.63845719554549 11.386455166916559 0 -1 -1
228 3 7.8244156221406485 10.828849391876988 12.255275764428925 0 -1 -1
229 3 7.802724987569281 9.683884743697455 13.131089028886345 0 -1 -1
230 2 6.850031773366131 9.661964523261636 13.617199218199355 0 -1 -1
231 4 10.519698978404854 14.056691662931785 11.141511076372032 0 -1 -1
232 3 10.714855855455099 13.287627708827085 12.022867764280067 0 -1 -1
233 3 10.809883970713669 12.259638896212985 13.088569862825466 0 -1 -1
234 2 11.583828890978532 12.49467445612144 13.808809832381154 0 -1 -1
235 4 7.703240950337178 11.984205647355246 0.13357903999233903 0 -1 0
236 3 7.760831701166258 12.961567509023114 0.7587801848931391 0 -1 0
237 3 7.696228050730855 14.085970172860788 1.6494975807270362 0 -1 0
238 2 6.672752241387084 14.045106358250015 2.2523939286214247 0 -1 0
239 4 10.352535373049115 9.757811146375092 15.033606232850936 0 -1 -1
240 3 10.405800788986355 10.705812573036571 0.6836376534734598 0 -1 0
241 3 10.613399849124871 11.726783252415514 1.728944749619085 0 -1 0
242 2 9.852718023886569 11.539216950292714 2.499034393227603 0 -1 0
243 2 12.499772204898195 9.6248118186557 13.444612333623082 0 -1 -1
244 2 15.50788884010777 12.278890576913065 13.379287311860475 0 -1 -1
245 2 13.776893713870765 15.060805220326912 0.5816347843345079 0 -1 0
246 2 16.415270228858684 12.756509043025362 0.9880691749600168 0 -1 0
247 2 12.807639338106561 14.311940363269315 1.9140738759128535 0 -1 0
248 2 15.210448649959178 11.911472716982448 2.0808598780625074 0 -1 0
249 2 13.826949754438274 8.632918071874064 12.642625619870735 0 -1 -1
250 2 16.273849040694916 11.412812906099612 12.104909118422574 0 -1 -1
251 4 13.823405941753036 11.53896221690373 11.423466174573782 0 -1 -1
252 3 13.62096972689575 10.635040834227702 12.168338880393298 0 -1 -1
253 3 13.553417209599617 9.600456421985815 13.138328556610617 0 -1 -1
254 2 14.288120887313234 9.93279343900017 13.88490542891754 0 -1 -1
255 4 16.321084767999828 14.37637482676703 10.990590759891795 0 -1 -1
256 3 16.123336839484242 13.508296060743918 11.724424911081819 0 -1 -1
257 3 16.276985535485103 12.34988741783848 12.625992452209532 0 -1 -1
258 2 17.22924576213003 12.450742848455127 13.199379007081642 0 -1 -1
259 4 13.407009779564971 12.08980667610044 14.918612837997623 0 -1 -1
260 3 13.534044921062495 12.990160036742182 0.5595903652370406 0 -1 0
261 3 13.664264313816194 14.227716041012226 1.2903302410727484 0 -1 0
262 2 14.60482223557555 14.183666796714578 1.8180832968811658 0 -1 0
263 4 16.261527261513105 9.740963514327209 0.049141916904029505 0 -1 0
264 3 16.228776815517843 10.751104180243253 0.6796566089671457 0 -1 0
265 3 16.174152641247556 11.854558092335205 1.5735034095457034 0 -1 0
266 2 16.84493866196901 11.668959172696951 2.417917095516126 0 -1 0
267 2 0.712832006389185 9.834730176520123 13.794866753445678 1 -1 -1
268 2 5.752179316782716 12.321580902309623 13.73641297752316 1 -1 -1
269 2 2.478352269992227 13.922601406812417 2.5238888617686333 1 -1 0
270 2 5.6285224254233235 12.033794695516002 2.2951334702794792 1 -1 0
271 2 1.8938234682925412 15.030571692456967 1.1837054501479682 1 -1 0
272 2 4.640671323573101 12.650397201131508 0.9683140423313871 1 -1 0
273 2 1.8479664629613641 8.81071786583481 12.832250911764492 1 -1 -1
274 2 4.016609735701686 12.251243119913473 13.9357228294951 1 -1 -1
275 4 1.6621337785930625 11.446408868767609 11.118566201031754 1 -1 -1
276 3 1.582520934521904 10.756668315320757 12.081940421459503 1 -1 -1
277 3 1.5698270016767957 9.79739979947435 13.143842074473074 1 -1 -1
278 2 2.3406172216041052 10.118820269824257 13.815780566393428 1 -1 -1
279 4 4.599056020911086 14.27784759759622 11.515110949526486 1 -1 -1
280 3 4.655457048888181 13.419970553021463 12.288285007531066 1 -1 -1
281 3 4.810280864706794 12.264485210806367 13.158679435421755 1 -1 -1
282 2 4.7171080539017325 11.402889646668594 12.557568363579538 1 -1 -1
283 4 1.4951003004337868 12.15492961801728 0.07235107472797046 1 -1 0
284 3 1.5275756943112297 13.014209698494884 0.871850676988015 1 -1 0
285 3 1.6977383067122787 14.147131833958397 1.7784295869223037 1 -1 0
286 2 0.834198825463136 14.265144906915907 2.477721711330822 1 -1 0
287 4 4.865401519819175 9.712536525280507 0.19790131891643936 1 -1 0
288 3 4.766455852372808 10.69359369209917 0.8529540589774492 1 -1 0
289 3 4.684798439808365 11.878407540552708 1.6649431018151994 1 -1 0
290 2 3.8167325908992726 11.930166170270105 2.3619253899785195 1 -1 0
291 2 6.908347525837245 14.482351206826955 13.69013360759529 0 -1 -1
292 2 9.443393926598876 1.955570192660615 13.440550417421104 0 0 -1
293 2 8.425551680063467 4.193049198488385 2.409986813809016 0 0 0
294 2 11.542723114675907 1.4063157567687854 2.081151866303312 0 0 0
295 2 7.466666320032358 5.347816371166704 1.4572392965094607 0 0 0
296 2 10.830529520132137 2.446271014507768 0.7973328984879573 0 0 0
297 2 7.62441175379432 13.551773221853985 12.28073459257802 0 -1 -1
298 2 10.675630935670561 1.0861534081928377 12.589627454776032 0 0 -1
299 4 7.43969424108349 1.4872996444933375 11.41708065078386 0 0 -1
300 3 7.500495047321883 0.4800440323184197 12.05089219474098 0 0 -1
301 3 7.693957865039614 14.495323549378147 12.851775331263088 0 -1 -1
302 2 8.69741797555498 14.624847186312685 13.326628102001633 0 -1 -1
303 4 10.52931200464573 4.124208433464051 11.378568648436081 0 0 -1
304 3 10.418398038927563 3.1684481840425747 12.012814649411553 0 0 -1
305 3 10.42341896840519 2.0833461011659993 12.969744629277352 0 0 -1
306 2 11.13188354899067 2.357890416159282 13.710119272812298 0 0 -1
307 4 7.862237726982874 2.3907944891714727 0.07902475161847841 0 0 0
308 3 7.703575544039698 3.289654105149608 0.8016710587488658 0 0 0
309 3 7.481825404663134 4.239967353379197 1.8578113476163753 0 0 0
310 2 6.565430870803484 4.119492808874716 2.444349232747791 0 0 0
311 4 10.641022637378185 14.612253355638448 14.800641295036254 0 -1 -1
312 3 10.769428220297609 0.34982279028714264 0.4168383263046551 0 0 0
313 3 10.76784076048911 1.4572744264415298 1.3133134448609427 0 0 0
314 2 9.796936668145362 1.4677489951788254 1.813903638786916 0 0 0
315 2 13.313329248691703 13.89263214813206 12.309831489423354 0 -1 -1
316 2 16.47625577548272 1.1748589757898875 12.406219659633534 0 0 -1
317 2 12.143214861228566 3.999807730001287 1.852189238251412 0 0 0
318 2 15.346974465139114 1.2185397814051684 2.2218615838934013 0 0 0
319 2 13.796621918336822 3.8760035244348026 2.551533955676792 0 0 0
320 2 17.154037397897365 1.251435900495352 2.368004345738305 0 0 0
321 2 14.611000317041402 14.780213683773532 13.194290136819978 0 -1 -1
322 2 17.368459943948384 2.2039065463059675 13.609662227038854 0 0 -1
323 4 13.383796098977816 1.4289310021351886 10.924936758733425 0 0 -1
324 3 13.677763784984949 0.6068106302491932 11.711416636177571 0 0 -1
325 3 13.62360013751179 14.860309538819102 12.800760686093778 0 -1 -1
326 2 12.891702153834727 0.07807371177509909 13.477148553273489 0 0 -1
327 4 16.446815418450658 4.161189291355535 11.27001641204409 0 0 -1
328 3 16.526385193557367 3.2526518916330165 12.022704867864764 0 0 -1
329 3 16.498037106207725 2.1264301870219215 12.94431428630286 0 0 -1
330 2 15.613255629491304 2.2585807788812433 13.652492216750582 0 0 -1
331 4 13.694871959994193 2.1692555429395397 14.960639485970193 0 0 -1
332 3 13.493712706844414 2.959063087668527 0.7121307528301122 0 0 0
333 3 13.170524955070611 4.056117951640955 1.6155517200304257 0 0 0
334 2 13.433915791476245 5.0213645900841435 1.1182487344355432 0 0 0
335 4 16.528891337852375 14.719406989170873 14.900226349373556 0 -1 -1
336 3 16.343931360802724 0.35740259785693884 0.6434371311887099 0 0 0
337 3 16.316981680263844 1.363088100633573 1.7164990437310348 0 0 0
338 2 16.372925008427707 2.390295135110523 1.2755783309531088 0 0 0
339 2 1.8507636997485686 14.072028387761753 12.271399111809455 1 -1 -1
340 2 3.9976245715434993 2.6089029441547806 13.730848674174277 1 0 -1
341 2 0.6470677428131173 3.8985246849547406 2.3258584913071667 1 0 0
342 2 5.90109668479055 1.988721682350915 1.6291946620585827 1 0 0
343 2 2.2868337627195157 3.492631761715676 2.670518738521645 1 0 0
344 2 4.142668761447365 2.446671063659611 1.5150965680604076 1 0 0
345 2 2.3212822667441433 15.011710996427034 13.674166893638887 1 -1 -1
346 2 4.725595559109698 1.450901445378571 12.53068813113182 1 0 -1
347 4 2.1309979941871746 1.6668649989837465 11.212125952433183 1 0 -1
348 3 1.741190476935552 0.8694235122987501 11.941169207280364 1 0 -1
349 3 1.5797290220027866 14.984596246179713 12.872404540325933 1 -1 -1
350 2 0.5315765259512295 14.898710510855517 13.153574897327273 1 -1 -1
351 4 4.590673778686473 4.283168019957353 11.276784008110907 1 0 -1
352 3 4.692628406281788 3.467712175741462 12.062676341466291 1 0 -1
353 3 4.777093596153497 2.399428930390969 13.027037685613385 1 0 -1
354 2 5.785761905422921 2.483936964531897 13.443166272109224 1 0 -1
355 4 2.0158681157350538 2.371754179560624 14.920875316202467 1 0 -1
356 3 1.806683917069541 2.983256729870124 0.768993578947897 1 0 0
357 3 1.656786733986888 3.8888798700849154 1.8778764144441549 1 0 0
358 2 1.8971633874125622 4.972286547438059 1.7385194485355018 1 0 0
359 4 4.490958777216392 14.771921319750835 0.0166574556607427 1 -1 0
360 3 4.680225014917388 0.5880380663526686 0.5626238191759757 1 0 0
361 3 4.8592213273850415 1.605507484692454 1.6132196018475071 1 0 0
362 2 4.678077959231572 1.222018327869407 2.634112760723093 1 0 0
363 2 6.607648589819913 5.020942340324094 13.853404414386793 0 0 -1
364 2 10.073609461408322 6.243412697999866 12.278432433826326 0 0 -1
365 2 6.781897653226695 8.852498524459254 2.572445108305792 0 0 0
366 2 10.349577715483505 7.623058212582663 1.2408525418012228 0 0 0
367 2 8.512847053372584 8.785662384928965 2.316971463014173 0 0 0
368 2 9.599101097355705 6.654798512210226 2.611752709157533 0 0 0
369 2 7.258064393745059 3.754776816522978 12.627470556960223 0 0 -1
370 2 11.497380957404836 6.870565399209954 13.122111335716733 0 0 -1
371 4 7.589809076503828 6.499789412277251 11.254107842858753 0 0 -1
372 3 7.46598482200931 5.689008549781798 12.06962737715401 0 0 -1
373 3 7.351250686712751 4.729322417794658 13.091608761814456 0 0 -1
374 2 8.380002085132107 4.736016068322173 13.501575234076395 0 0 -1
375 4 10.789729766580244 9.209686978498455 11.30509522179061 0 0 -1
376 3 10.526386238143035 8.286001640133527 11.942933727232981 0 0 -1
377 3 10.470548205366914 7.150382639678548 12.762456414151714 0 0 -1
378 2 9.905484251819157 7.316092076372955 13.640836752836005 0 0 -1
379 4 7.533404991942319 7.1170636796334055 14.949089928369876 0 0 -1
380 3 7.554593840167519 7.845606571712786 0.7853559246851457 0 0 0
381 3 7.573531443837803 8.85780333316364 1.7983588774018158 0 0 0
382 2 7.4733554205176524 9.816093284913562 1.3025040953184006 0 0 0
383 4 10.331110009595834 4.636085966972536 0.14634811287980412 0 0 0
384 3 10.344794115614727 5.5973055220173595 0.8056330901781898 0 0 0
385 3 10.367726844088477 6.684544629305635 1.787806238547583 0 0 0
386 2 11.373578728167871 6.649109059928104 2.2809844264102055 0 0 0
387 2 12.820449211702988 4.771579429610012 13.870130993062357 0 0 -1
388 2 0.15863785615550866 7.103372884273215 13.389418425877928 1 0 -1
389 2 13.217769419256948 10.035787487982306 1.1881251507711972 0 0 0
390 2 16.633876558756207 7.296053555108194 1.5070876107498539 0 0 0
391 2 12.500650620403448 9.087341185885974 2.4539851612650723 0 0 0
392 2 15.276204429961416 6.246351537951332 2.14827259147293 0 0 0
393 2 13.492879844633302 3.752103163743428 12.566845690832453 0 0 -1
394 2 15.883621449405897 7.268349951428075 13.718119492328492 0 0 -1
395 4 13.678815299771907 6.680626806406164 11.253940308223305 0 0 -1
396 3 13.624257534878586 5.849462468208312 12.101646854357003 0 0 -1
397 3 13.577430600420303 4.754482727602805 13.056903068522118 0 0 -1
398 2 14.555833398528845 4.707708481840451 13.506365470827765 0 0 -1
399 4 16.492433907982544 9.309103089839176 11.452759715532265 0 0 -1
400 3 16.5871605198601 8.348971989190655 12.126286308841701 0 0 -1
401 3 16.632757303375623 7.17616148841645 12.93350464242722 0 0 -1
402 2 16.379069788162347 6.326511862886883 12.19133061211801 0 0 -1
403 4 13.129471500682028 7.167876780980769 15.012633902009414 0 0 -1
404 3 13.184544258554803 8.027323038193154 0.7052944898331349 0 0 0
405 3 13.306587217227731 9.093147979677955 1.6742285315285548 0 0 0
406 2 14.215809507453502 8.910367587009826 2.3203673094448902 0 0 0
407 4 16.21156908420773 4.449362055873777 14.986237555992657 0 0 -1
408 3 16.328411937023734 5.280624362733341 0.7190815340274018 0 0 0
409 3 16.30999453663519 6.278583698605494 1.7640065491706298 0 0 0
410 2 16.944924418638816 5.817222593185123 2.560977800626976 0 0 0
411 2 0.8336079193577104 4.873547156956823 13.146837125050055 1 0 -1
412 2 3.8096416841041942 7.079021801035209 13.270820909587504 1 0 -1
413 2 1.4622023286847803 9.890353871462073 1.1432529897222379 1 0 0
414 2 5.418367450116455 6.860504474009187 2.17925012201396 1 0 0
415 2 1.0637045357201351 8.945581061850264 2.4845631656888902 1 0 0
416 2 4.114070667377276 7.750178954965145 1.3231144817463696 1 0 0
417 2 1.7077221630437502 3.7993117459748604 12.20068570064686 1 0 -1
418 2 5.229107668667143 6.581705154644053 12.309121913634991 1 0 -1
419 4 2.118562304086481 6.788099138282165 11.059397326240555 1 0 -1
420 3 2.0406297449096744 5.904765665170621 11.803758351727048 1 0 -1
421 3 1.8328916789401453 4.7494477606239895 12.715750802637602 1 0 -1
422 2 2.676395128636843 4.688156333162073 13.4382501060818 1 0 -1
423 4 4.640959039987385 9.406677610189645 11.36635787375448 1 0 -1
424 3 4.689358998133553 8.575422023783746 12.157019144927185 1 0 -1
425 3 4.805513733840538 7.367105693591812 12.92871120622989 1 0 -1
426 2 5.520748292693108 7.46140410936135 13.79402221006798 1 0 -1
427 4 1.6711454516281998 7.160593423691732 14.864642205058257 1 0 -1
428 3 1.639389273339638 7.853427472999759 0.7406489754406588 1 0 0
429 3 1.7451033928593602 8.986468820146188 1.664277567772613 1 0 0
430 2 2.780488067193299 9.14708182165653 1.918461849715118 1 0 0
431 4 4.504059885381554 4.880149499312839 15.000185700064888 1 0 -1
432 3 4.521322910776748 5.745146260500493 0.6890433868541325 1 0 0
433 3 4.449279084619787 6.7674773138342905 1.74958839403364 1 0 0
434 2 3.709375865548946 6.479034357086997 2.509400323783153 1 0 0

Velocities

1 0.52257155 -2.64455198 0.08268383
2 -91.61483616 -86.47721156 -44.16381629
3 -16.26755340 6.91832716 20.38093192
4 -24.24867636 14.83546821 -0.32493367
5 -15.01866910 -6.77730063 33.68346570
6 3.70299762 -19.92707677 7.01947406
7 7.53102446 -13.10991506 24.08265722
8 -2.75602291 -8.32497745 -1.63901419
9 -19.24496716 -13.77007461 -10.54137777
10 -3.59246806 5.64700864 0.24384084
11 -9.97327847 7.96093715 -0.27679639
12 4.90871921 -4.70069978 6.23286059
13 1.71830415 4.10616126 -1.82924760
14 -5.84709213 -12.19356532 -1.93986324
15 -0.91675102 -5.74024996 -1.78137571
16 1.00689170 -7.49562288 -2.51554010
17 3.31302862 1.36181440 -5.29360639
18 23.93196074 -21.98614236 1.38352804
19 -2.37230597 -2.44035546 -2.28852108
20 2.89895166 3.08086079 3.65527884
21 -6.05563370 -0.48140368 1.24947725
22 -1.32544083 17.93567508 0.31118468
23 -1.68985483 -2.84717135 -7.69377658
24 3.13300051 4.61712437 5.88550075
25 -4.52856003 1.40791292 3.37450774
26 -3.71996317 6.83206710 32.94829552
27 -15.67327392 -10.77984660 7.41198727
28 -16.14202148 0.53986539 -20.17527523
29 -12.41550542 7.62648609 -14.52464516
30 -23.95194821 17.45938225 0.87887910
31 -0.45077867 20.79870851 -15.94178444
32 15.25255069 20.88885210 -4.76023214
33 -3.14894098 -17.33491902 -3.86356800
34 -27.27804752 8.58700863 12.63762552
35 13.81153674 1.55543565 3.14638708
36 3.33738869 -1.16370039 -4.36296180
37 -6.02511145 5.94709080 -2.20253104
38 41.35229639 9.57005525 -16.17906121
39 6.94689213 -9.84864972 1.10438353
40 -2.63659300 -3.48631725 1.48404202
41 -5.37799377 -1.17079492 -6.38464859
42 -16.71608842 10.95681564 -1.93871749
43 9.14075736 -5.04021882 2.51776633
44 -2.37956712 -7.86364715 11.22358397
45 -7.89501032 -2.05625530 4.88152629
46 -11.36748620 0.61612346 -13.44549783
47 -6.03506883 0.95039344 -3.35025099
48 0.92033640 2.39327362 1.85422736
49 3.66902173 -4.95457625 3.98954174
50 16.63248897 29.75529224 -17.07792379
51 -28.60084850 7.74729325 16.72815685
52 19.44395813 4.21146925 -4.43479572
53 6.54177557 13.84087710 16.61793177
54 -7.16485520 23.44509712 14.84317822
55 -1.91982106 -0.98258379 -22.06943251
56 -9.99267548 -0.46925818 13.96973956
57 4.37465775 2.78578020 2.47506456
58 4.74278610 13.83746298 8.70058212
59 2.19044809 -1.97811786 0.61866348
60 -1.69973241 3.81837438 -2.65411129
61 2.66948616 -2.44897607 -3.14302175
62 -4.76154294 -11.78771505 0.57816488
63 -0.89284192 -0.77539030 0.18745513
64 -3.27039478 6.20725609 -5.94012124
65 -3.93952251 5.54392917 3.31615924
66 28.09293580 -20.06393775 18.90287837
67 7.08440308 1.18276019 -1.99571441
68 1.84595646 0.37530244 -3.32029277
69 7.70737451 1.71133700 -1.55312040
70 7.00917909 -34.85826650 -5.76272282
71 0.00896576 -2.60222555 -1.04389627
72 3.25965760 -3.19162850 -8.28235703
73 3.01815346 2.71759066 4.56455167
74 23.21891599 11.24302499 24.62899312
75 -2.98676621 -7.03735306 -13.98516617
76 13.08338716 15.13080362 -2.97057346
77 -9.62818209 7.35811596 -4.70317419
78 -5.55219964 9.19232038 8.54315307
79 2.93104255 -8.26034026 -17.18779539
80 -9.31766246 -35.73526690 -6.74021907
81 14.50575402 1.87427867 -2.02702528
82 -18.95637104 -7.91922976 7.48386024
83 5.71858316 -7.30944569 -3.84190079
84 -6.86579779 -0.03245450 -0.40724275
85 2.42155597 -6.32303422 3.03212112
86 -10.64393904 -13.09852055 8.93976716
87 -2.28778719 -1.43690576 3.36913706
88 -2.68914085 -1.46104376 3.00423691
89 2.92868371 4.28980880 -4.23515089
90 -3.71234108 -4.74985729 25.20566031
91 -3.43333108 -1.17797962 0.24512223
92 0.19428935 4.17968620 4.94397756
93 5.66026708 -3.21890680 7.44700934
94 2.38486143 -6.75257324 1.30539451
95 0.48491213 8.19822161 -2.56143259
96 -0.34373921 -0.16225618 -2.75175381
97 9.12517620 1.80945506 4.29593143
98 -14.56865132 -9.42068946 -13.37093997
99 -17.70610632 -21.82655979 1.48576835
100 -5.32133397 21.91246001 9.58897542
101 15.57702402 -9.87649057 21.06514918
102 -23.29917736 -5.56512205 -11.84527503
103 -33.01113143 -2.69370343 -10.89392796
104 -7.56457783 0.79708040 -37.41772344
105 1.62516843 -17.18900019 -12.70674160
106 -0.83132757 -9.26176270 15.10637468
107 1.23107551 11.62211560 2.87215487
108 -0.72348798 5.91878955 -3.40749356
109 -6.99792859 2.24027372 5.79389417
110 -3.17609390 0.60719393 -16.91107912
111 -1.54914377 3.91748129 -7.03142949
112 -2.81501085 11.25286770 -2.61266863
113 -1.55625441 -2.14059809 7.01139056
114 -47.77972948 -8.69565949 -6.67380678
115 6.17020697 1.19041212 -0.04309381
116 4.30395418 -3.21302851 -2.61901968
117 0.59117630 -7.13746843 -1.76104957
118 -10.31148107 8.68788473 -16.20201471
119 1.26648964 1.42413182 6.11566307
120 5.17334909 -0.88878815 -0.01544975
121 0.59583309 2.34008821 -3.22481300
122 -7.21556894 5.87739299 9.30720449
123 0.69476878 -20.79396074 4.30115100
124 -6.26220036 10.85836600 -17.44193999
125 -4.76402341 -5.05981300 14.99151217
126 -9.85796838 0.03119560 -6.58583090
127 -2.67306360 -9.90888225 22.94129911
128 18.98955341 3.38668347 -4.37868936
129 20.14644866 19.19852071 0.27549305
130 18.66044513 22.53515225 -9.95024681
131 0.17993504 -2.07967170 -4.63611667
132 -1.99015714 0.01624110 -2.38082160
133 -4.70605613 2.63924068 -1.84697419
134 11.57235959 -31.22188076 -8.74810377
135 1.10359856 -1.18861358 1.08621694
136 -1.77265927 6.47093522 -2.11240115
137 0.61276545 -1.59919403 -2.04382079
138 -9.58642238 -5.53886762 29.58725596
139 -0.27667291 -7.98128417 -11.93528882
140 -5.46419293 2.49018962 -3.60619390
141 -2.57715503 0.69022178 -2.76938562
142 17.69204278 8.95792377 8.12794882
143 -2.69649381 1.86218447 -3.54409590
144 5.21575905 1.16786088 4.68336830
145 1.77335835 -2.23368223 4.65517049
146 -3.37510887 -6.98604576 -16.84699058
147 -0.14111390 -6.23965694 1.78525518
148 38.23855328 29.84604648 -7.00573869
149 -12.65627076 -5.91006231 8.88008614
150 -14.49739497 -1.58793174 -22.62780113
151 -1.61254176 -9.29384728 -4.99938963
152 -18.98497224 -21.97575953 18.65846890
153 14.47824999 2.67388660 12.98156873
154 15.34064869 9.44005551 10.61675139
155 -1.17457100 -1.82339127 4.66270237
156 -0.36867020 1.95131860 -14.80140323
157 2.17168822 -4.83918651 0.47903798
158 4.13949689 17.28418048 -12.73308333
159 3.02568421 -8.10380379 -2.04098921
160 -0.54704455 4.14627740 -3.41303940
161 2.26617172 0.63176637 -5.83921828
162 -8.84104473 19.70370572 3.26288938
163 -1.28505793 4.07184726 -5.21754623
164 -0.70058765 -2.62591396 8.65408332
165 -5.63698123 -2.80388989 1.12479933
166 -6.12889620 -14.25224400 5.47781746
167 -1.96825965 -3.31418915 2.57909555
168 2.42800199 0.74947787 5.32861956
169 7.74526388 4.96318248 -1.90129903
170 -13.18147412 -7.40322470 -24.66540736
171 0.61936401 -15.70804920 39.13772269
172 -6.35586609 -5.48525423 -8.12971265
173 -25.92374217 7.66193436 24.08410965
174 23.10594142 2.47777698 -18.60438800
175 -33.16662463 -0.38096153 39.88973733
176 -0.81731361 -4.82696623 2.57969843
177 7.40757023 -0.57984346 -11.32516434
178 -16.29689428 11.83099773 -2.52995815
179 -1.58918222 -4.51470194 4.47380584
180 -4.55826112 -2.73254702 2.71520713
181 0.97754482 -2.67414707 -2.29617603
182 -8.49081781 -11.06755438 11.35466072
183 3.42073723 -5.36110373 -1.36459605
184 -5.50180800 2.16195808 8.03081559
185 -3.93832955 4.75599675 1.89483754
186 8.14169744 -0.33297856 -35.22838304
187 -7.83295251 2.40162072 5.33455848
188 2.98227781 4.67333118 1.33303126
189 1.63557786 5.76157621 -1.52104845
190 3.72746478 -22.24732829 1.34242753
191 3.69882554 1.64006374 -3.75182577
192 1.31690980 -10.04261382 -1.39867221
193 1.02915401 7.09524887 7.92822745
194 0.13141263 1.66069371 -7.93565957
195 5.30495084 18.50446702 -9.26000332
196 -1.44298654 -5.64491849 3.65433094
197 9.00661598 9.16057086 12.87157457
198 26.99162319 15.91839044 19.09793774
199 -1.07777871 -38.25088570 40.91505903
200 12.06238224 -18.48620971 5.06476907
201 -5.73211989 -3.99170892 -13.90780321
202 -10.30477726 9.25713111 -18.91830092
203 8.69987360 1.27950158 5.13605241
204 -4.02533743 3.85076505 -1.40387775
205 0.96613339 -3.95426208 -2.83046607
206 15.43222276 -3.27645835 23.46701683
207 -3.48717276 2.58115484 7.47322889
208 -5.68661362 -1.67099064 -5.56304197
209 1.10691309 -3.37325931 2.76054676
210 -13.14340622 4.86331308 -19.66060524
211 -0.25145896 4.29428857 6.64090258
212 -0.73957598 -5.70859481 2.33770550
213 -3.71144347 -3.08911624 -9.72720916
214 2.01728480 -10.48589296 -16.15267957
215 4.31950590 1.27810899 5.54695159
216 2.50729901 5.10125063 1.81058487
217 -4.88416757 -0.35838871 3.18373635
218 -14.05894766 -15.87932305 -7.35420689
219 -29.02355306 -3.68377958 1.16734568
220 -20.83672858 2.81375707 -5.38721709
221 34.67627002 -20.99332213 1.52106663
222 0.60558069 0.96791509 21.87939183
223 -15.44575255 3.15294775 -20.02652889
224 16.63852913 -16.84857878 -8.74211326
225 -10.39193660 15.37068618 -0.93479146
226 -13.04408419 -19.98548648 -5.67726650
227 5.62042116 2.44801727 -1.66328672
228 4.27488937 5.04958927 -7.20830769
229 -4.70712282 -0.16849534 -7.98613738
230 -8.58888433 -30.51357464 -27.12697923
231 0.66239532 5.26052124 -2.93875083
232 4.29953118 2.81227093 -3.41414821
233 -0.24033155 -2.15590778 0.66379505
234 -22.74333513 -4.42702326 -7.94164974
235 2.12606459 1.33706728 -1.64060577
236 -2.28840120 -1.13030087 -1.77616204
237 -1.93744199 0.10409687 2.42984736
238 0.75492123 9.20392173 4.59564241
239 -6.91260083 -1.68458029 0.46154354
240 2.53485185 2.24140358 -3.28152252
241 -6.37640683 1.19848106 3.94067108
242 0.95809772 -21.49383355 -1.94418820
243 -8.05071309 37.08904300 -14.32901150
244 17.57025466 22.44937732 -13.25674908
245 -12.62118562 12.07040136 3.73465659
246 -8.04075342 -4.73449669 18.70936043
247 9.84845885 -16.39703909 16.42353886
248 -4.94357481 -7.27387664 -10.69554243
249 -5.82425735 15.07425991 37.27949871
250 -5.56915465 -11.67803530 -2.86064224
251 0.47001003 -0.99400775 -8.01543927
252 -6.19847170 -13.70496620 0.32829663
253 3.20565799 3.41172577 10.80129643
254 -5.59003066 2.13788265 -13.56846353
255 -1.81107353 1.47796043 7.87630560
256 3.44718681 1.33618359 2.34518351
257 -6.88539418 2.09575313 -0.60161446
258 -23.56367517 -8.03409197 4.37615486
259 -2.24571435 -3.66627606 11.56088276
260 2.38567205 -2.36960083 -5.86846337
261 -2.85107956 -7.69108626 -3.17226870
262 -10.50662231 -3.26889879 -12.83814587
263 3.67301088 1.19334507 2.39897015
264 4.16207465 -2.47477089 -2.08326677
265 7.92945689 -2.41619150 -4.93886268
266 14.52896649 -24.77744996 7.58734892
267 -8.93304359 -0.08351329 -14.26893691
268 3.03892426 12.51915073 -5.16905837
269 -5.79014083 -12.69463232 8.74099021
270 -14.83626759 2.30459887 -18.13512571
271 -19.43793158 13.17334023 -29.84554368
272 27.30867833 -5.50152606 8.51091006
273 -3.33105964 13.05756262 -15.95199354
274 -14.26313579 21.37254152 -14.80809357
275 -0.26867405 0.96157799 -1.02923475
276 -3.23949074 -11.74359895 0.30284453
277 2.32942495 4.92842688 0.27284127
278 10.04794366 14.73546853 13.64062145
279 -1.77568790 0.05237276 8.68899199
280 -3.98432928 -2.70111921 -2.29948638
281 7.23344593 -5.76824992 0.13463472
282 15.79788571 14.24080916 1.12671792
283 1.07404935 -9.19739749 2.18901812
284 3.98089867 -4.36952016 4.64155200
285 1.54224407 3.42403032 0.27247700
286 -19.59102767 19.44607523 -3.90100769
287 -2.36437994 2.47012565 6.19711528
288 3.64531784 -4.85526484 -3.51281638
289 8.75955941 6.42774087 -7.18705623
290 3.63106532 11.41512263 4.11681764
291 -25.75275132 3.15636707 1.54208930
292 -16.90576740 -15.78557772 0.65324799
293 -17.38259858 -21.25741544 7.36565325
294 16.07711714 -24.10072280 32.71566831
295 -6.23827112 -1.32271450 -10.53771616
296 8.43081957 -23.36430326 4.16725189
297 16.47050729 4.65904830 26.42043264
298 3.48501091 -11.70962258 -14.39571164
299 0.88641421 6.40656210 5.62697788
300 -0.66808706 -5.01533909 -1.30804640
301 -5.21818582 3.17967671 -2.62613536
302 -9.71116738 6.09139153 20.98104294
303 -1.15466819 -0.92034584 2.41210699
304 2.06319385 6.15414551 1.84507127
305 -7.83217471 -4.35785155 1.54430027
306 18.04411775 -6.71313067 -31.94252936
307 -0.06812035 6.19080630 -0.32209745
308 4.59210345 1.01707364 6.11777771
309 -7.93123637 4.87738292 -3.67993527
310 23.72659977 -4.40056530 12.80341996
311 -6.50253473 2.60062057 6.91680699
312 2.30955450 -0.69908308 5.75662768
313 -5.75883801 -0.36218099 -3.76255294
314 -24.51355902 27.19323102 -18.45855505
315 -25.28722434 6.52703579 19.40947678
316 4.67787743 -23.37911409 -1.38063364
317 7.12600276 34.25990814 3.88430819
318 -12.63248636 0.84707948 -28.46798477
319 5.46981175 12.48347419 12.01335393
320 -9.88961665 -6.04431203 -24.20941563
321 12.61781886 -10.59311053 14.69545936
322 -10.59164615 22.49961743 0.00874264
323 -3.68174547 3.20543585 3.45744382
324 2.28635573 0.45954688 -3.82505885
325 -1.19593005 5.09164403 -1.97839392
326 5.23227231 10.86710571 -18.01786840
327 -1.39358042 -3.65049513 4.88712358
328 -0.37286368 -3.24028546 -11.07834935
329 8.49274049 0.67610115 -7.91838369
330 -15.99431188 7.43889041 -12.43666408
331 -4.42409149 -2.57537920 2.19229583
332 -1.08253887 -1.97764980 -4.33516871
333 -2.16803793 2.09985542 -8.96158677
334 -17.40779815 4.81220069 7.81507559
335 -2.89593420 7.89684264 -5.74125842
336 3.81607333 -2.09302923 -0.15401190
337 -0.36510646 -4.09100912 -8.86908898
338 -6.92463395 -18.63694123 2.88098620
339 -1.92120068 2.58048245 -1.77082562
340 0.64255600 25.47285908 12.57837467
341 3.53796883 -24.53546706 -22.24318812
342 5.18104957 13.77700388 9.53172996
343 19.16966557 -12.25357350 9.14778731
344 14.26812145 16.81262382 11.99753076
345 2.73250200 -4.16150900 -16.29665222
346 17.31093479 0.72373067 27.20636462
347 4.75402352 1.91128641 -5.16448183
348 -9.72980665 7.09845565 11.30244651
349 4.83151182 0.23593317 -2.89172721
350 3.80278632 -13.07872466 -11.61084874
351 -0.45563398 4.61672586 -10.48934732
352 1.71706264 -2.44429238 -0.98962238
353 -4.24277609 -3.84272523 1.78741666
354 -32.12246627 -40.84932352 -15.28399499
355 0.04055044 -10.06080938 4.52967118
356 -5.01733289 0.57011546 -10.17680377
357 5.10571868 5.59670913 -3.81659261
358 3.92121246 -3.15901362 -25.53743230
359 0.63574302 -2.50622044 5.34738502
360 7.67551947 5.33567850 -1.24797703
361 -7.60422644 1.00032271 1.47767459
362 -21.74272084 0.85333285 -16.51257552
363 14.39304717 8.78835315 5.11300291
364 -17.94352282 -18.85490085 -7.35235120
365 -5.17566127 24.39855225 5.38005778
366 20.42540002 32.15305961 6.89633080
367 -8.19842394 15.25595524 23.17961517
368 15.79477758 -18.84144288 -16.54056787
369 0.51261957 -1.86007063 17.08609088
370 9.37089590 22.24287081 -25.05438298
371 1.35268081 -4.15936712 -1.12857360
372 4.53649125 -1.78512553 -4.10660243
373 4.67947801 5.41890972 -3.55440654
374 -0.72715010 29.67759478 -25.68291944
375 -0.61750524 4.35259213 0.01557942
376 -3.77105716 -3.31936592 2.43895970
377 0.27676380 2.53341456 5.89701873
378 12.90381669 -0.19395603 24.75644949
379 -8.96353721 2.67165203 -0.35099895
380 4.42058624 -3.74005142 0.52065320
381 4.20112897 2.09422777 2.02761474
382 21.75407569 -9.46997271 -29.04958432
383 3.84608826 5.06325100 0.56692630
384 2.44256782 -3.76479102 -4.06269658
385 -1.49413492 -5.98092725 -0.43145039
386 26.73310257 5.25542385 -1.66051644
387 -3.74735333 46.34154483 9.47671130
388 -12.42789834 -4.58178578 3.19443532
389 5.38836726 -6.43489779 12.05700815
390 -19.12084946 -9.62338944 16.43312902
391 -1.50313483 -46.95899834 -12.88246486
392 25.40497643 15.25510831 -4.24145500
393 5.13021717 6.00470549 -11.31923197
394 -6.66411037 16.09644847 -7.92065533
395 3.49677927 -4.24187301 2.54151480
396 -8.74877851 3.20020924 0.81857573
397 -0.02865093 4.60312224 2.78348477
398 13.62167251 -21.53430964 -16.29681146
399 3.82397119 -1.53300418 -1.37468337
400 -6.00364196 -2.36162734 3.57707568
401 2.86996278 -3.69849930 2.19548297
402 5.18822615 -13.63124376 21.02452197
403 4.49838488 2.75425285 -3.71106132
404 -3.97381937 3.09442444 -0.57295986
405 -6.11458186 -4.19138301 5.93523255
406 2.84699939 -2.63646783 -12.05110411
407 -6.58548643 3.32011707 9.14854343
408 4.96407547 0.33715788 -2.27767810
409 -4.11433345 -1.13369664 -2.51453983
410 -11.91370192 20.35544231 -28.41129228
411 36.34255152 15.96697475 20.81995280
412 2.06016992 -23.98952436 15.27368215
413 5.48850419 19.59841385 7.16274402
414 -2.94352837 32.20665458 2.24972895
415 7.14985971 26.75029700 1.47286812
416 -33.47075699 -6.69617628 46.69553860
417 -8.68416052 -18.79701146 2.47865577
418 -4.22325088 9.12173476 -6.23827768
419 6.83499435 -7.26093946 3.34359998
420 -2.51691231 0.03620198 -7.29566102
421 2.25936795 -8.03567283 6.06939445
422 -4.56855525 17.73503188 1.41744117
423 -1.63640429 5.07816815 2.16452788
424 -4.73471807 1.15134945 -1.21461834
425 3.37218843 -4.32132117 3.70299650
426 -11.59955335 16.51618398 16.32677014
427 -2.05986592 3.65856128 0.09960151
428 4.39146537 3.45046813 3.36379805
429 6.72180820 -0.61587841 -5.23069047
430 11.81544569 26.34857066 -5.61714030
431 3.92001305 -4.18037156 -2.26555937
432 -0.10378500 -4.58192871 2.00628277
433 6.00375998 9.83008632 -0.46958859
434 2.84406823 6.86157326 -4.42268164