LAMMPS data file

434 atoms
4 atom types

0 18.399669 xlo xhi
0 18.399669 ylo yhi
0 18.399669 zlo zhi

Masses

1 18.9984
2 1.0079
3 12.0107
4 14.0067

Atoms

1 1 12.536122285773395 10.940925802706367 6.46892653826496 0 0 0
2 2 13.285545232825234 10.356199123904494 6.699968284471386 0 0 0
3 3 17.45572237594078 7.673658410810391 15.461115445523902 0 1 1
4 2 0.009095197796035848 8.191043525553177 15.284255403366865 1 1 1
5 2 16.686553822813345 8.448899290865256 15.676667863659727 0 1 1
6 2 17.243515126031923 7.075686915373533 14.544021194968394 0 1 1
7 3 17.537485807882693 6.773903362169976 16.57142672855769 0 1 1
8 4 17.570168818892483 6.041308504807699 17.497410990431437 0 1 1
9 3 14.279720278137123 17.68552691245876 14.511272012998035 0 -1 0
10 2 13.61028559481315 0.06807387893792767 14.15978757949497 0 0 0
11 2 13.87444753882304 16.66587351153367 14.299665665203966 0 -1 0
12 2 15.2011271124793 17.807888710191996 13.883355886147363 0 -1 0
13 3 14.601457450683457 17.75326254401654 15.881594061413796 0 -1 0
14 4 14.89874312177735 17.73214185674659 16.99432010365027 0 -1 0
15 3 5.267165390128574 15.454619762237353 10.848293349771364 0 0 1
16 2 5.260683844279248 15.832779940096456 11.94014307461008 0 0 1
17 2 4.190182568065626 15.505428182834603 10.54776803449229 0 0 1
18 2 5.857842557249591 16.069097204000656 10.205477542590943 0 0 1
19 3 5.836677737480384 14.138807692962702 10.852843326435876 0 0 1
20 4 6.455319559476931 13.180344660686771 10.80117657014487 0 0 1
21 3 17.26544368680681 0.6850288149045721 4.537615295073572 -1 1 0
22 2 17.999347824567412 1.4376406884407722 4.725675614524121 -1 1 0
23 2 17.57910737572893 18.170157150525633 5.118055910316987 -1 0 0
24 2 16.239959635652188 1.029494366529437 4.802026676696389 -1 1 0
25 3 17.31320479989114 0.40484546460841436 3.064874162047233 -1 1 0
26 4 17.392550984218662 0.1828558947989469 1.8901500246774356 -1 1 0
27 3 6.206068387421144 16.73149828850657 1.519779405625934 0 1 2
28 2 6.042338214051852 16.64776664296076 2.5905297686802555 0 1 2
29 2 5.3887314036555996 17.309540273280355 1.11869737800198 0 1 2
30 2 7.174847835858723 17.099564629568576 1.2292282926631881 0 1 2
31 3 5.999079522620735 15.455011976308867 0.8092174001054521 0 1 2
32 4 5.959097032657028 14.415033277107112 0.285247928218571 0 1 2
33 3 0.5140623473753059 11.058898611050454 9.735140760667019 0 0 0
34 2 1.5033534862966205 11.579523392721427 9.573369923346656 0 0 0
35 2 0.23958589814729103 11.067361126074303 10.83721481449955 0 0 0
36 2 18.11199694404152 11.502960628324427 9.17741435415273 -1 0 0
37 3 0.624751592639976 9.682874112502452 9.230529312860247 0 0 0
38 4 0.5390146210010613 8.554576258924147 8.87649905319032 0 0 0
39 3 13.498811373287035 2.436643422170066 10.287774255943654 0 0 1
40 2 13.11143753376502 2.228377177936425 9.271876356152601 0 0 1
41 2 14.315632810132383 3.182882225867005 10.236449387708705 0 0 1
42 2 12.711013183900597 2.824793394232338 10.945407104156095 0 0 1
43 3 14.14839447241077 1.2442667755430827 10.814915308533815 0 0 1
44 4 14.765443568172913 0.2721680996174512 11.072253565478604 0 0 1
45 3 6.231755479300804 4.772960666910377 10.095269808866343 -1 1 1
46 2 6.218016396024133 3.9699715057164595 9.426941501845949 -1 1 1
47 2 5.22847350589381 5.309404870285647 10.157850710741345 -1 1 1
48 2 6.552647979955838 4.473432308434321 11.111017576519146 -1 1 1
49 3 7.263706154191309 5.626977964358906 9.431104359451503 -1 1 1
50 4 8.158500650204545 6.1736311095507554 8.855006410394756 -1 1 1
51 3 15.033482723143049 13.323412162002692 5.889147452630166 -1 0 0
52 2 14.509686782204234 12.629700428175331 5.195837962377088 -1 0 0
53 2 15.488621413003704 14.153052129496299 5.291140005520152 -1 0 0
54 2 14.2674836938643 13.796892104861358 6.553768631317827 -1 0 0
55 3 15.85298661841534 12.479127582770909 6.736431606751769 -1 0 0
56 4 16.56934407813127 11.759292975969027 7.355994777632368 -1 0 0
57 3 9.60128613536563 2.388253741210646 9.117766547417872 0 0 2
58 2 9.587482494351931 1.8022971458004506 10.043979462028028 0 0 2
59 2 9.80911024469677 3.4021050749064425 9.46083806016741 0 0 2
60 2 10.359027280811999 2.0584726745101505 8.41657755410052 0 0 2
61 3 8.292698232511587 2.344665568647391 8.458582796276609 0 0 2
62 4 7.182893446497275 2.2370694108128073 8.056704408202249 0 0 2
63 3 4.168647035171719 15.651953704414826 16.050258849002535 0 0 0
64 2 4.78223766229288 14.851599373735164 16.534485130289053 0 0 0
65 2 3.5592845220072262 15.098877580091793 15.287476330213059 0 0 0
66 2 3.4696337181314694 16.03958921267252 16.85069272447364 0 0 0
67 3 5.083178627359721 16.608946383029426 15.42751644837458 0 0 0
68 4 5.866446522861844 17.328943899040052 14.933200005141137 0 0 0
69 3 9.26260340275422 17.76363968543209 15.964774214908546 0 -1 0
70 2 8.373480634061593 18.258755034949758 15.605777543311605 0 -1 0
71 2 9.004417843669891 17.329775651484354 16.958656631522324 0 -1 0
72 2 9.682617963376819 17.049033964921055 15.213911896875569 0 -1 0
73 3 10.2358933063256 0.35253885120230155 16.29412134458659 0 0 0
74 4 10.983535552604504 1.1916249305213995 16.65732985058931 0 0 0
75 3 9.571970797570197 4.541520640265061 16.004944084741112 0 0 0
76 2 9.163891926911923 5.476067598157521 15.449263427922592 0 0 0
77 2 8.764794470999181 3.799462418545542 16.16870465466087 0 0 0
78 2 10.484810676781594 4.226182396639054 15.524939534002378 0 0 0
79 3 10.094771679874498 5.073889634032245 17.260195204287957 0 0 0
80 4 10.657996402709525 5.450278595161459 18.19409504148857 0 0 0
81 3 10.765178390487774 13.414381887010006 12.569115970622537 0 1 1
82 2 10.755537896564542 12.55790985581055 13.31716501044091 0 1 1
83 2 11.462976546508967 13.123807217329762 11.795773014750152 0 1 1
84 2 9.74801579254061 13.467866414123549 12.085121925288624 0 1 1
85 3 11.24030946567486 14.651421596594243 13.124780651692884 0 1 1
86 4 11.680377172740105 15.627898575719563 13.632203560625335 0 1 1
87 3 6.7424787178434755 13.603207386967847 3.786412605258839 0 -1 1
88 2 6.937848141537717 12.537228410698841 3.9551632801701864 0 -1 1
89 2 7.078047943097919 13.891713024404536 2.7878337019885637 0 -1 1
90 2 5.6606203429018125 13.79664912175516 4.008408650804322 0 -1 1
91 3 7.571133543691569 14.351666472001286 4.724402054136419 0 -1 1
92 4 8.235358735996055 14.956755788437224 5.4143772240507495 0 -1 1
93 3 2.5776977469794295 7.585661090755454 16.49222839018369 -1 0 0
94 2 2.0971137351368085 7.099372143343222 15.623594021479116 -1 0 0
95 2 3.4847715029341715 8.136427392906885 16.119431736028233 -1 0 0
96 2 1.884830297473077 8.220118939100985 16.934248632361328 -1 0 0
97 3 3.1927485887593416 6.630915373186234 17.41486810660088 -1 0 0
98 4 3.635865224697746 5.8213249491186945 18.19938612113208 -1 0 0
99 3 15.133591146729755 15.839810742457917 2.120552073732364 -1 -1 1
100 2 15.519278700199767 16.821925878595323 1.7931596830654688 -1 -1 1
101 2 14.296199271279551 15.507849023633073 1.5121104209970713 -1 -1 1
102 2 15.876488521908817 15.077221942777518 2.086935204938956 -1 -1 1
103 3 14.57013238491328 15.855259393544769 3.4636785413491125 -1 -1 1
104 4 14.08835868491608 16.077123345772787 4.5213234839829095 -1 -1 1
105 3 17.510691268418615 15.258383570502717 8.196953488511552 -2 1 1
106 2 0.09948485605487994 15.320912477287415 8.783895211461013 -1 1 1
107 2 17.289274883895697 14.155149276978385 8.011386051944902 -2 1 1
108 2 16.644517606719422 15.682915699859409 8.743740174403055 -2 1 1
109 3 17.697607276188414 15.833753656153768 6.9277961180702805 -2 1 1
110 4 18.041571684695324 16.122054808818785 5.837931867793932 -2 1 1
111 3 18.083668308886075 7.579677063178738 2.087463041997847 -1 1 1
112 2 17.88205279147843 6.757121272476401 2.7127998236592044 -1 1 1
113 2 0.4847871861723518 7.362327020445225 1.4493392892326769 0 1 1
114 2 17.17228590992493 7.919357809159147 1.609371795348372 -1 1 1
115 3 0.04542008685738682 8.606015091869613 3.0410491192918774 0 1 1
116 4 0.38860646019728123 9.468901877251081 3.757138436390667 0 1 1
117 3 12.793115583874052 10.880930925154587 9.677291602263775 0 1 1
118 2 12.28250892054728 11.2481203963988 8.724150006848934 0 1 1
119 2 13.752582775002367 10.337079808770305 9.41725849964722 0 1 1
120 2 13.095471245904223 11.781286165297375 10.226574321280243 0 1 1
121 3 11.967098175031305 9.989450460051062 10.386289302936788 0 1 1
122 4 11.145204572028016 9.318443133191844 10.916602535157367 0 1 1
123 3 9.099266344123276 8.277477499148961 0.732772481025492 0 0 1
124 2 8.665564006610493 8.667811705234302 1.71692334460376 0 0 1
125 2 9.670105924978634 9.106640656339748 0.24496762759438875 0 0 1
126 2 9.819799921929246 7.509796564708555 1.0516082191265632 0 0 1
127 3 8.019368388676716 7.675305145921257 18.369308726653745 0 0 0
128 4 6.999125639965681 7.2391612475792355 17.969379674294863 0 0 0
129 3 3.258740746036361 12.591767782773912 0.4549899924063927 1 0 0
130 2 3.9640695354884117 13.115647357523391 0.9951554174974364 1 0 0
131 2 3.731360877574033 11.93891443672886 18.162536975086834 1 0 -1
132 2 2.797012608400684 12.003400421229182 1.2977114162586465 1 0 0
133 3 2.225855272316874 13.32276992905152 18.177252233612588 1 0 -1
134 4 1.4792246634127506 14.088664091765452 17.72127583681251 1 0 -1
135 3 16.644293775620966 8.171958967429532 6.281206684109296 0 0 1
136 2 17.396192184029278 8.195341817870263 7.137197851465976 0 0 1
137 2 17.016822700749085 8.740312310570667 5.448989637609341 0 0 1
138 2 16.5171287685929 7.110232252974134 6.0263604649603435 0 0 1
139 3 15.398539228792435 8.82339342951359 6.689142489444244 0 0 1
140 4 14.44862604736225 9.44067845736164 6.921480196947001 0 0 1
141 3 13.253427613295822 7.0615930624738015 0.1589485791321151 0 0 1
142 2 13.795163875976863 7.2036197209001305 17.622697447888957 0 0 0
143 2 13.483838420618973 7.843653961873943 0.9028339530918587 0 0 1
144 2 12.210948847993048 7.104056177899998 18.33996533864102 0 0 0
145 3 13.63826246852012 5.687138078343918 0.6629102278159633 0 0 1
146 4 13.973495162049172 4.560600019585419 0.9070933911987286 0 0 1
147 3 6.904233215378296 8.689246402407058 5.143308676763486 -1 0 1
148 2 7.146657369010719 8.29863089902909 6.133927534095198 -1 0 1
149 2 6.975087965650198 7.833780493112879 4.390349415587162 -1 0 1
150 2 5.854509152902307 9.07515074502946 5.250800606343927 -1 0 1
151 3 7.876381107794477 9.69732962799094 4.716102394478058 -1 0 1
152 4 8.581537347242774 10.566669822674656 4.369027671302167 -1 0 1
153 3 5.319273891488678 12.324296105220801 7.3176029453096305 0 0 1
154 2 6.315360897690477 11.813636307902728 7.355139461643485 0 0 1
155 2 5.49014131823633 13.401981446844374 7.447986350362248 0 0 1
156 2 4.861976205877233 12.19812068698516 6.304838794709283 0 0 1
157 3 4.341875435448278 11.91962936835704 8.292527746016885 0 0 1
158 4 3.5082999575576403 11.536423153214903 9.038086268556391 0 0 1
159 3 7.835200487487613 0.14046287602263385 5.405157341175683 0 -1 1
160 2 8.141350971590203 17.539667555196793 5.083813032074237 0 -2 1
161 2 8.01823679015521 0.12353217247882203 6.447674227659813 0 -1 1
162 2 8.483937897808033 0.9573118852006752 4.947637454694021 0 -1 1
163 3 6.4389765316827985 0.35758888347915746 4.919098550890057 0 -1 1
164 4 5.3601501985884195 0.47428206706148185 4.446573773052981 0 -1 1
165 3 13.918542055022206 3.414696506134413 14.86740015952803 -1 0 1
166 2 14.723963335382527 2.7823044260918004 14.563701269208279 -1 0 1
167 2 13.67572267301755 3.1571429005063565 15.877469122309044 -1 0 1
168 2 14.15742362231289 4.517383725290491 14.867918077573485 -1 0 1
169 3 12.865971157632101 3.1208650392314268 13.963269328233881 -1 0 1
170 4 12.01738587865851 2.902201677042592 13.166846142427222 -1 0 1
171 3 3.8623666420148792 2.0301735703089467 17.342361385939483 -1 1 1
172 2 3.651628761818822 1.1372799521017987 16.84383740559464 -1 1 1
173 2 3.2855513807143892 2.85425644700369 17.010717105975814 -1 1 1
174 2 3.7182958643770463 1.824363904416941 0.007553830937659711 -1 1 2
175 3 5.2870799608069134 2.240989476771844 17.18385278576879 -1 1 1
176 4 6.4427220765665805 2.4282100821073227 17.258181706210973 -1 1 1
177 3 17.67446036336934 13.322535894333969 13.538402102955606 0 0 1
178 2 16.87367987463 13.209249347120474 14.301630804744253 0 0 1
179 2 0.18311687686054404 13.921847227414606 13.874797957711253 1 0 1
180 2 18.09264865071 12.368073072814305 13.149621400472437 0 0 1
181 3 17.128818459112605 14.243200967197865 12.491778407152877 0 0 1
182 4 16.602626590589477 14.923991443420695 11.700235975899712 0 0 1
183 3 13.096395710538419 14.328896076178848 16.698426372064986 0 0 0
184 2 13.451615530667285 13.754906907852305 17.583759797743177 0 0 0
185 2 12.187702651812156 13.850395204289459 16.136390287563895 0 0 0
186 2 12.890821805483341 15.356566400808246 17.040495880116318 0 0 0
187 3 14.202968470430541 14.330604512496304 15.727479573698265 0 0 0
188 4 14.981065346421802 14.226047527933195 14.86456235189641 0 0 0
189 3 9.059098974563849 14.280194518065406 8.677957034686807 -1 0 1
190 2 9.299796514017872 14.417269875117253 9.708707265807718 -1 0 1
191 2 9.897993648569102 14.533905450055098 8.071970009450702 -1 0 1
192 2 8.780018024521521 13.21597477372066 8.623587271821075 -1 0 1
193 3 7.968978301528664 15.199918824650155 8.292278638405733 -1 0 1
194 4 7.256534332634397 16.074944023139995 7.971602578990053 -1 0 1
195 3 9.970600844309201 13.902481890635855 0.15964295412549206 0 -1 1
196 2 10.722828406117001 13.312450458238004 0.5823624537730997 0 -1 1
197 2 10.297125934624875 14.249983546967073 17.564033342577233 0 -1 0
198 2 9.021540197354103 13.308051910369164 0.0038232878371570207 0 -1 1
199 3 9.752401861732206 15.065873399536017 0.966487713577729 0 -1 1
200 4 9.447973169489414 15.883154761687612 1.71843737498077 0 -1 1
201 3 7.345541931852597 10.140309096113887 12.246902253792044 0 0 1
202 2 7.189097060833943 11.061903802211221 11.706870068163909 0 0 1
203 2 8.423783112140566 9.869236418848669 12.227663927135252 0 0 1
204 2 7.1213127657943 10.351675243368943 13.304862374979677 0 0 1
205 3 6.466995331147978 9.050227834890139 11.715569756796608 0 0 1
206 4 5.62820635736659 8.338162583742974 11.363041036322036 0 0 1
207 3 6.170035559915239 4.379344691818273 1.3828721587895616 1 1 1
208 2 5.266743225360357 4.306811653515261 0.7106075199968711 1 1 1
209 2 6.562845689909853 3.387368107514382 1.813760454539792 1 1 1
210 2 6.998603345643745 4.716930267655921 0.7032112915322651 1 1 1
211 3 5.939372810864647 5.43413979543244 2.3567984450166635 1 1 1
212 4 5.795910083179352 6.211369427222494 3.2486873537179837 1 1 1
213 3 9.824179203843904 8.973890313932978 7.30767673272029 1 0 0
214 2 9.747643153455762 8.876718488447313 6.2546273088021485 1 0 0
215 2 9.88486585476272 8.013086902369684 7.780059188865884 1 0 0
216 2 10.73082819881573 9.58683890439896 7.514791612730459 1 0 0
217 3 8.736272701914311 9.68582895978354 7.942684025195975 1 0 0
218 4 7.746205660956858 10.150132876864069 8.420666530429372 1 0 0
219 3 9.712127298629794 2.368710899562346 0.9008308352129618 0 1 1
220 2 10.590971583077271 3.0020359319176926 0.582146821914983 0 1 1
221 2 8.82855432404571 2.6251994073278655 0.30322868122168944 0 1 1
222 2 9.959863226828947 1.3189749018045875 0.7012377644860409 0 1 1
223 3 9.252926620142588 2.5024251072099664 2.2778829763338844 0 1 1
224 4 9.000885930056555 2.415657853079409 3.4047601620929226 0 1 1
225 3 13.908000108746679 15.671238793668655 10.645421603110115 0 -1 0
226 2 13.406299570343233 15.638056119477458 11.62448372075284 0 -1 0
227 2 13.710932753226738 16.64196800787884 10.242387559148163 0 -1 0
228 2 14.968079630880581 15.62705051758124 10.708405753548478 0 -1 0
229 3 13.353120988950423 14.565272320760142 9.80328587293554 0 -1 0
230 4 13.090894386918622 13.850519159950336 8.92639546257642 0 -1 0
231 3 9.704180386714084 7.217147235472681 12.561398999156985 0 1 1
232 2 8.990605286449567 7.58262795350041 11.763233499368345 0 1 1
233 2 9.787104637574759 6.080205243732384 12.436495922857187 0 1 1
234 2 10.728789388762351 7.743477498455691 12.269288297796294 0 1 1
235 3 9.351200169266253 7.644123412571118 13.89078757554304 0 1 1
236 4 9.140076080402444 8.000440406378736 14.985762064308043 0 1 1
237 3 12.500898845934822 18.094136319280903 1.0171750809884932 -1 0 2
238 2 13.366798873417968 17.505569622198788 0.6494817279352749 -1 0 2
239 2 12.387889744759622 0.370325336536236 0.17926033111981535 -1 1 2
240 2 11.591215459138542 17.47278516225355 1.1535864644403513 -1 0 2
241 3 12.85154717269078 0.3755534571016221 2.24440506419945 -1 1 2
242 4 13.120702887386965 0.9626212650792643 3.191942979850829 -1 1 2
243 3 7.16747430937103 13.739872996245671 14.56612123201992 0 0 0
244 2 6.747099929210995 14.447550800533358 13.827284870834635 0 0 0
245 2 6.708064942909033 13.844501896323775 15.548121754072008 0 0 0
246 2 6.957898473249412 12.744151068023676 14.09723647297549 0 0 0
247 3 8.577337817115724 13.809924506921808 14.917738016809684 0 0 0
248 4 9.647681268825112 13.83025101497014 15.379612376263239 0 0 0
249 3 14.387675410491378 4.049340151343685 4.9002760800775 -1 1 0
250 2 14.535954510970754 3.1643166801965785 4.255101474705163 -1 1 0
251 2 15.22754076713077 4.6488340488231215 5.274255087761874 -1 1 0
252 2 13.805994436622855 4.787770096365223 4.2632030824041705 -1 1 0
253 3 13.592142097307566 3.632545126886746 6.037414483706893 -1 1 0
254 4 12.982494918414803 3.409419238064255 7.03172004423338 -1 1 0
255 3 3.2125466885751517 10.735312774470888 12.664916416069348 0 1 0
256 2 3.08605002069267 11.145797529856049 11.658276826338533 0 1 0
257 2 4.042899999188539 9.998347301392403 12.636073618385511 0 1 0
258 2 3.4732508695617774 11.597907176082087 13.328834668060951 0 1 0
259 3 1.979114750464089 10.19209228519513 13.071302869937194 0 1 0
260 4 0.9580782790807139 9.82311128704024 13.518043967975741 0 1 0
261 3 16.626256756488818 3.1005656769093517 0.45230286349968196 0 0 2
262 2 15.72960133521147 2.7788540889286737 0.9672668938005301 0 0 2
263 2 16.59204265977496 4.172053675463961 0.5529693291083542 0 0 2
264 2 17.558570879596985 2.640975078806264 0.8352340018509029 0 0 2
265 3 16.62026021036537 2.7142360393390574 17.48685031917702 0 0 1
266 4 16.627361919805264 2.3041103733204116 16.404780231870404 0 0 1
267 3 1.44372380056948 4.405666908990222 2.16315902181205 0 1 2
268 2 0.4949571565376268 4.722033762599371 1.6850828056693994 0 1 2
269 2 1.4078633875955515 3.349583791031868 2.4861731988358353 0 1 2
270 2 2.3004584463910125 4.583339153952021 1.4751930005329446 0 1 2
271 3 1.6562495765021397 5.2258080217392795 3.3305205312553245 0 1 2
272 4 1.868129861580578 5.841827359660453 4.319682818178593 0 1 2
273 3 3.7326599952243957 8.926512275245843 2.538834275652306 -1 0 1
274 2 2.661564429956888 9.026817844543293 2.384870449415167 -1 0 1
275 2 3.9296345027101762 7.8951842168207085 2.9480750746912805 -1 0 1
276 2 4.306216599163213 9.008077666887946 1.6050068515650848 -1 0 1
277 3 4.016764143164721 9.910006780920163 3.5511308165244304 -1 0 1
278 4 4.083103712005847 10.726962330944126 4.38268336536263 -1 0 1
279 3 16.756297697245234 6.363021648245856 10.051389767049766 0 0 1
280 2 17.7636162449296 6.5130679054199785 9.603106423753069 0 0 1
281 2 16.093137541388977 5.979048446562698 9.265309355038196 0 0 1
282 2 16.857673062761396 5.568537892604789 10.783628886096995 0 0 1
283 3 16.35781622544566 7.623013623197826 10.661750752706547 0 0 1
284 4 16.028826748152497 8.699772090619371 11.004639175495731 0 0 1
285 3 1.7235348943595323 16.814196062399546 11.531630727493974 0 0 0
286 2 0.6541841155599747 17.07816510698615 11.704520610850423 0 0 0
287 2 2.010930276653782 16.861129295240517 10.4556964705224 0 0 0
288 2 2.264876887189401 17.643075166651673 12.015788187713653 0 0 0
289 3 1.9549898564126413 15.621008478054437 12.253889398505954 0 0 0
290 4 2.302744141716695 14.702485751225044 12.864015710320398 0 0 0
291 3 17.904590270677268 0.4096804249764004 9.5188483820979 -1 1 1
292 2 17.23310549005045 18.00252266574652 9.901174327984318 -1 0 1
293 2 0.5635380544574625 0.41656129876796627 9.820111850459039 0 1 1
294 2 17.896710972000243 0.34398603749997103 8.39337626695454 -1 1 1
295 3 17.28590490942067 1.6210430288649667 10.110068263746898 -1 1 1
296 4 16.942260641078754 2.529049456985101 10.810219078120372 -1 1 1
297 3 12.646998551123216 9.84112109614136 3.511482994946875 0 0 1
298 2 11.900358179586448 9.232800328906796 3.033920208344728 0 0 1
299 2 12.6692181478362 10.812048922684736 3.0207942105257524 0 0 1
300 2 12.44013090985434 9.996014016979002 4.53563084426969 0 0 1
301 3 13.847165495902136 9.07355147235822 3.3352167476966863 0 0 1
302 4 14.78505404203614 8.386100457988029 3.282746993457224 0 0 1
303 3 0.37041888735424594 12.543930433929619 4.723999050190993 1 1 2
304 2 1.3408113477691503 13.159057727655956 4.66386822828133 1 1 2
305 2 0.6605784983627562 11.569705260119408 4.4608218107240445 1 1 2
306 2 18.382682296732863 12.671282803892774 5.71428892352546 0 1 2
307 3 17.882033312064987 13.071868580899334 3.665824416638957 0 1 2
308 4 17.313824651366218 13.555194629856848 2.7549802920733457 0 1 2
309 3 11.361191267157638 10.600822570392722 15.256890346175597 -1 0 1
310 2 11.592505543251145 9.56392947914877 14.952928815165697 -1 0 1
311 2 12.178725836719485 11.253832958837314 15.027983979033554 -1 0 1
312 2 10.581084549724638 10.833710194856133 14.499789413169175 -1 0 1
313 3 10.92534654903574 10.812646977173209 16.584605121780864 -1 0 1
314 4 10.54322169012043 11.18073501341583 17.616463026717998 -1 0 1
315 3 13.835631714705029 6.1400090414384 12.45409750488137 0 0 0
316 2 14.894965361915506 6.013433039380005 12.379993121572225 0 0 0
317 2 13.444173890870859 6.830539047357651 11.709483373191109 0 0 0
318 2 13.353025947909726 5.140140690047963 12.248412962477264 0 0 0
319 3 13.532554282330924 6.625901393945576 13.761230027135959 0 0 0
320 4 13.445656830288168 7.180252096859386 14.796096706341663 0 0 0
321 3 18.18559088307111 16.933411516420723 18.05761396540138 0 -1 0
322 2 17.541243779464466 16.638443112020482 0.541106860236633 0 -1 1
323 2 0.18309007183980655 16.073724305381482 17.5054590783124 1 -1 0
324 2 17.61047906031763 17.52025439718574 17.338500572220457 0 -1 0
325 3 0.8229689513936015 17.862935701380035 0.0811778903551232 1 -1 1
326 4 1.6523685021763665 0.2500551991477272 0.2262381032670906 1 0 1
327 3 4.235598272756974 3.351469372718889 4.839887038417067 1 0 1
328 2 4.582899672286852 3.4028123667258043 5.929825522494082 1 0 1
329 2 4.210863117075591 4.371555672019204 4.474433162406777 1 0 1
330 2 4.8983221813987345 2.707146175040581 4.104066430476232 1 0 1
331 3 2.938224605754506 2.6899089384607633 4.894034854573899 1 0 1
332 4 1.8637237594989364 2.206915161876392 4.809888543109687 1 0 1
333 3 16.850398169598183 11.543749621622197 0.37779824881309443 -1 0 1
334 2 17.291756826923592 12.425731024430009 0.8709099466465909 -1 0 1
335 2 16.14406293476387 10.853980950631026 0.8476518177769793 -1 0 1
336 2 16.246092609531797 11.835061344696838 17.879994331537777 -1 0 0
337 3 17.999996805815183 10.743820000489057 0.0076309597232948785 -1 0 1
338 4 0.5733372961528792 10.185037343121442 18.134166255910145 0 0 0
339 3 2.2453175017237004 17.078589011401245 3.5293687314245337 -1 0 1
340 2 1.5370885924597377 16.60366348932902 4.276523390222945 -1 0 1
341 2 1.6568467617801887 17.47768414362563 2.737051293208941 -1 0 1
342 2 2.8029581876449603 17.972857373072856 3.877739408792971 -1 0 1
343 3 3.1479005359793026 16.052328793682516 3.0680034238602762 -1 0 1
344 4 3.8313400214672253 15.111706372249563 2.9330392465941046 -1 0 1
345 3 17.59503824367985 0.0068229962920130635 14.478339695399505 -1 1 0
346 2 17.247043652129786 18.184383284257546 13.478948223487627 -1 0 0
347 2 17.179656056814434 0.9768620334544155 14.848136087242406 -1 1 0
348 2 17.257967104581326 17.62594464540374 15.190436983278556 -1 0 0
349 3 0.6525324842430162 0.0012079522711674262 14.463063348890314 0 1 0
350 4 1.8122773723649013 18.32852225164012 14.533957720759242 0 0 0
351 3 6.938779742831383 10.90765250338001 17.80662798989412 0 0 0
352 2 8.06269239113414 10.991237585658304 17.796697454701928 0 0 0
353 2 6.853498446063883 9.96399992069236 0.008615839322882124 0 0 1
354 2 6.476517059450663 11.771163240862313 18.356582805477935 0 0 0
355 3 6.477538258038047 10.824140768535987 16.476727120417646 0 0 0
356 4 6.070063985906955 10.845005456822376 15.417159718974716 0 0 0
357 3 11.681637629940692 14.4377262349015 4.831841121208018 -1 0 1
358 2 10.642986092764328 14.85694541785798 4.5980009531786745 -1 0 1
359 2 12.169057524823756 15.277707484823859 5.193474969201464 -1 0 1
360 2 11.71068309152768 13.614624096486173 5.554789308892209 -1 0 1
361 3 12.187558062200736 13.92214195507502 3.582851035418555 -1 0 1
362 4 12.515662058670976 13.360720877629994 2.6011683276122457 -1 0 1
363 3 0.5355264366425454 3.753526721331117 14.461433626493681 1 0 1
364 2 0.4044717980181135 3.4984927672810713 15.489260539527711 1 0 1
365 2 1.3275944398455737 4.548684694650184 14.560828667783879 1 0 1
366 2 0.8555543305866371 2.8740007793045366 13.879206999691302 1 0 1
367 3 17.656570220655258 4.2760028489252875 13.883254368731517 0 0 1
368 4 16.831958621942455 4.8898056096449505 13.33606912002697 0 0 1
369 3 12.766484443410041 0.030649455549783784 6.364606803928879 -1 2 1
370 2 13.401291655373022 0.8721617475653689 6.740421401609807 -1 2 1
371 2 11.92153697437269 0.3680962423772057 5.73543452864918 -1 2 1
372 2 13.38170454001726 17.788908390339046 5.813910902847946 -1 1 1
373 3 12.138307488870929 17.848371264228128 7.589392267110112 -1 1 1
374 4 11.59509757435261 17.45561548509167 8.561097833634904 -1 1 1
375 3 6.744110300952332 1.358766518934447 12.39256587868683 0 0 1
376 2 5.744521969876298 1.7568628669625321 12.110614485650094 0 0 1
377 2 6.618308720892258 0.7664124834596151 13.365361614168853 0 0 1
378 2 6.93161511479261 0.5418651089010766 11.643339976396366 0 0 1
379 3 7.608644591599282 2.460549930991056 12.493249701272228 0 0 1
380 4 8.217367729658662 3.460663541466314 12.664679873199185 0 0 1
381 3 4.49267491636789 16.201875053892124 6.764199856019241 1 0 1
382 2 5.548930493346258 15.85183870344639 7.091413549217375 1 0 1
383 2 4.66571521701465 17.259634456138503 6.604813067212726 1 0 1
384 2 4.101705383815089 15.75898822944613 5.894097288344479 1 0 1
385 3 3.4463089992679334 15.930422696582086 7.773199435024763 1 0 1
386 4 2.5068467947243613 15.529753788565927 8.317133275631862 1 0 1
387 3 2.5303575840690518 6.948394603211947 11.123127391578283 0 1 1
388 2 2.0248450579580166 7.879616261263781 10.781861622481147 0 1 1
389 2 2.034799691217253 6.158137436489249 10.580205555548508 0 1 1
390 2 3.5640602657028415 7.084952164144997 10.881765387384284 0 1 1
391 3 2.2785231581812244 6.833645167556503 12.51526943496932 0 1 1
392 4 2.201467845965643 6.618269237178871 13.650263771981091 0 1 1
393 3 9.132904504601383 5.019925944592179 6.056524917683315 0 0 1
394 2 10.102505904668618 4.64888542078695 6.299884557341453 0 0 1
395 2 8.630051796543416 4.0626397273209855 5.785895134074047 0 0 1
396 2 8.577416918015615 5.529789568432326 6.894033349109453 0 0 1
397 3 9.266506685101723 5.987188221591684 4.947704042513403 0 0 1
398 4 9.46804692483715 6.690423927704559 4.029162233734275 0 0 1
399 3 14.962303909296192 9.980140556531726 13.832602364511377 -1 0 0
400 2 14.428721082933196 10.788038858386237 13.314025242224252 -1 0 0
401 2 14.728839451847433 9.039074097385074 13.336483561111304 -1 0 0
402 2 16.088818032532238 10.051457877271094 13.723218409998273 -1 0 0
403 3 14.706909806636425 10.094826547534625 15.269322701183134 -1 0 0
404 4 14.432463960560353 10.50701825010641 16.34483247869088 -1 0 0
405 3 0.40801394549299086 3.9100080564456317 7.760590408425692 0 1 1
406 2 0.016012115907024085 3.9242048085465435 8.697281055438918 0 1 1
407 2 1.361204159424009 4.572904255666125 7.6729643522340885 0 1 1
408 2 0.8183901301288504 2.927544000313882 7.5672019973351725 0 1 1
409 3 17.892755440010394 4.320404427890173 6.77224036909806 -1 1 1
410 4 17.369374304433386 4.751743216385469 5.802792992528359 -1 1 1
411 3 2.8419906634333776 2.2810594181842974 10.627029288461078 1 0 0
412 2 2.603972659403533 1.898129207495067 11.619003195038141 1 0 0
413 2 1.8723211178585732 2.583589368025402 10.121000282693318 1 0 0
414 2 3.5045139555568223 3.187305116246333 10.685936886964896 1 0 0
415 3 3.421289039454316 1.179443405178335 9.846434093057814 1 0 0
416 4 3.867306921551551 0.2474880689568377 9.294368867514839 1 0 0
417 3 11.0911473906828 0.035804192596400414 11.696063121275033 -1 1 1
418 2 11.44216483180073 18.164111752108678 10.690048570559167 -1 0 1
419 2 11.953114694968649 18.158106108266207 12.325489102325573 -1 0 1
420 2 10.851194661762014 1.147034273402973 11.78342215721793 -1 1 1
421 3 9.820061452427064 17.66362541292971 11.921935241720062 -1 0 1
422 4 8.793917022961324 17.12171256055092 12.083308446776131 -1 0 1
423 3 3.6552167969274385 7.910934380398999 6.939426504657544 0 0 2
424 2 2.9787588178786915 7.772253900219586 6.093395740229079 0 0 2
425 2 4.683777383737922 8.17198244983028 6.62679082793078 0 0 2
426 2 3.39457705733656 8.71455663743888 7.66662937518455 0 0 2
427 3 3.6021487408550104 6.697336423233491 7.653764793416932 0 0 2
428 4 3.5334797739061163 5.678124339266216 8.27593164258631 0 0 2
429 3 5.383367504637069 5.426948591790288 14.77285710452659 1 0 1
430 2 5.388992325773031 5.422098104435858 15.894036056635752 1 0 1
431 2 5.176759299208526 6.444209538590971 14.433886363635317 1 0 1
432 2 6.337676344603615 5.114611756785197 14.353045794912486 1 0 1
433 3 4.578571200552862 4.3745837267144285 14.147482950647172 1 0 1
434 4 3.887555961566384 3.5694594120392047 13.65075889897887 1 0 1

Velocities

1 0.21476993 1.67657917 -2.07699252
2 -101.07690303 80.70797760 -33.30449241
3 2.81771510 2.46959967 -4.42449463
4 18.13207299 -18.69623173 -3.71493614
5 -13.38002993 -10.32551064 -14.17643582
6 0.14425024 2.51094824 -9.13695755
7 -0.72349030 5.93996555 4.13739919
8 3.28527253 -0.61801359 -0.36935803
9 -3.98623735 2.51393821 3.05345807
10 -7.76581233 30.17907036 -4.41962514
11 -6.35677106 -5.05669594 14.89368450
12 29.64618326 4.88430134 -1.50669920
13 -0.71201218 6.31457496 -0.06952520
14 -1.35366178 4.28431450 -1.61818687
15 2.34954310 1.37492389 -5.38182411
16 -2.92888666 -2.08709735 37.99834163
17 14.70518814 -7.87994473 -36.60529786
18 -15.28457300 -25.24417411 3.53686219
19 0.64874212 3.83186403 -0.01508450
20 -1.65516763 3.35868267 -4.77235180
21 -2.53228517 -8.95658827 1.41257526
22 -9.12054625 -3.62676461 -12.50310042
23 -28.26202449 -2.56702483 -14.54270528
24 -2.15872089 -14.68002136 -14.42323107
25 10.81732424 2.00932786 -4.03430758
26 -6.90738630 -1.50107718 2.53941971
27 3.05427590 -1.57667257 -3.60564922
28 35.77967226 -12.05993440 8.62556154
29 -19.18962962 19.45327036 13.20963456
30 9.47492716 -28.05487339 -20.14285353
31 8.83368623 -4.83483518 -11.06679684
32 3.26553593 4.71486886 2.44848950
33 -4.72853314 -2.55515634 -4.89462272
34 8.67648462 1.04231601 3.69604284
35 -13.25081609 -9.90140486 -19.12004678
36 15.09829618 -1.70943326 1.31692123
37 -11.43144350 3.60382854 -3.24762701
38 -2.57602392 5.24496163 4.78651186
39 -4.50960727 2.46976857 -2.12332114
40 -2.95704953 2.16148620 21.82034950
41 -11.00635680 -25.80759971 15.81698296
42 -18.56158523 -5.77666317 -19.64314690
43 0.81324796 1.78437729 0.46721958
44 -2.49555868 -5.34832113 6.35051979
45 -4.31296300 0.81225872 -7.51552542
46 -13.83840008 -13.79475911 -6.86260608
47 -21.78103121 -5.16982657 -14.13602533
48 3.55505375 -12.73723967 -19.03925366
49 6.84154099 -2.36544944 1.43974573
50 -5.22260556 -6.14867781 -7.74296983
51 8.21202593 -6.59715220 -1.94761329
52 1.85634676 -8.90712804 2.23665014
53 23.03235262 -6.77863290 4.42475266
54 -6.75594715 -0.04409997 -3.06043151
55 -0.73454724 1.78640433 -1.98020565
56 -1.51880885 -4.46805090 -0.31975952
57 4.33466879 -0.84599417 -8.98552803
58 3.44742394 -6.32694689 -2.12376047
59 21.06280667 15.89307196 1.52443281
60 -26.16042681 -4.97049225 -5.70484739
61 5.96429084 9.16208248 3.64350931
62 -0.21322198 -2.02597063 3.71243507
63 1.62449728 3.91805628 -7.75841982
64 -19.72856900 0.71929975 5.49942611
65 8.55827400 32.28163801 23.79724228
66 -15.63918028 -3.10508861 8.62606358
67 3.45318445 1.95347338 3.89378050
68 -1.74000884 1.04977661 2.91486881
69 9.19536329 -0.12622377 -7.53707058
70 -6.99888467 22.99728141 -25.98420284
71 4.06619679 4.60798836 -18.89153654
72 -19.18571269 8.88388667 7.58214098
73 -2.97102836 -3.88963278 2.01045020
74 -8.34324720 3.50944647 0.33708789
75 2.07535448 1.94380696 -1.02231457
76 6.97959866 24.20714090 6.49977369
77 2.33400489 -1.79025613 -8.96068543
78 -12.48175961 -8.09588020 -11.54770711
79 4.30015506 -0.55268965 7.34914592
80 1.38096228 0.91710977 -2.35039370
81 -0.94223567 -3.05065669 -3.19917719
82 -30.17843867 6.04533435 2.53791771
83 -22.64313901 -7.39811178 25.57204498
84 -1.65610306 0.14431326 -31.21638343
85 1.48252118 3.16510880 6.40875202
86 2.26483323 3.73041007 5.66030253
87 3.29661641 -10.32478143 0.99086742
88 37.29343799 -6.03908610 17.17367655
89 24.54865019 6.40344055 -17.04628758
90 0.09296714 -30.27759981 19.20105864
91 0.80300051 0.34842423 7.82095778
92 -5.07538502 -2.64614634 -2.42908958
93 -2.34292702 -4.45132249 -1.98087584
94 -18.73072226 -21.73311559 -56.36944017
95 -22.00359574 2.01104941 -34.05925447
96 -11.05758213 -8.06970036 -3.94618722
97 3.71724583 8.14739859 5.00648801
98 2.66028476 -4.72882596 5.38819062
99 0.42534484 -0.50376195 -4.08424817
100 -20.46639785 1.00647298 -10.97884445
101 -21.42650994 9.13824573 10.05778352
102 33.78366598 -10.16219020 18.38823260
103 3.68003833 4.25260297 -3.39080670
104 -4.94801018 0.38111030 -3.74631666
105 -2.91623230 -7.25889733 1.49628961
106 -10.69057379 -14.33952004 15.79846568
107 25.29494975 -4.11789896 -2.42225160
108 15.13090211 -4.72135581 5.92772660
109 7.89762144 -2.28021503 0.68104374
110 0.39665846 -1.20984478 -6.78110042
111 -6.90309326 -4.45654111 -4.11866253
112 -28.98943618 -11.43130120 -1.79290929
113 10.37600008 16.70249446 -25.19246700
114 -0.13567317 -8.66294294 -1.48122041
115 -0.17345944 2.51812181 1.18690849
116 -3.21196564 3.80272477 6.58156213
117 -10.85765844 -3.47879559 -9.46265946
118 13.74183637 -10.29432862 6.48307029
119 4.81325034 -3.25588267 -33.95015172
120 -12.95139217 -14.64418463 -7.92038554
121 0.62433402 3.58274900 4.14519000
122 -3.43479701 -5.47107561 11.36361791
123 -3.56962401 -3.75714348 -3.53702811
124 31.97421887 -14.70193814 6.47794338
125 -10.31473697 6.19844409 9.41634453
126 -3.66611294 16.85698850 6.89519395
127 -8.81900814 -2.67543387 1.02178280
128 1.48556194 -2.90949639 8.10894428
129 -4.54420481 -2.53818164 4.68889452
130 -9.57952228 -17.37913074 -18.78212290
131 -11.84159319 -4.80422654 21.76740114
132 0.74734115 -10.61355576 7.27145968
133 -1.09930290 -4.46577662 -8.42760857
134 -1.97367053 3.50858485 -1.39802186
135 3.52280073 7.67356950 4.92326092
136 -21.45499244 5.49993700 -7.24923462
137 -17.87933649 26.42205168 -26.82229875
138 26.37427984 15.57293674 12.42429029
139 -4.49967874 6.08554264 -3.13227958
140 -1.45957889 -2.13693317 0.49834862
141 9.66969583 2.24128062 -2.34814884
142 -31.99189598 -20.18855692 7.30227872
143 -15.69449380 9.19296406 22.79301213
144 13.67680368 30.01321380 3.51431769
145 8.45693308 2.53513062 -0.45452167
146 -5.85447743 2.08103050 0.75016054
147 6.77717689 0.85097691 6.32026025
148 38.55093875 23.33320375 -2.75298732
149 3.63101852 10.43074196 -0.92689709
150 -5.50239792 -18.76027717 -27.28027743
151 -0.44262000 -0.82664943 9.13517138
152 1.45776410 0.45634628 -6.43323112
153 -0.49615525 0.85677488 3.77685179
154 -9.81158513 40.67008450 9.77195484
155 53.95170865 26.75538119 -17.21310567
156 -13.46758369 -0.73026764 -18.46465981
157 -5.64118395 -3.77562623 6.48196136
158 5.06869748 1.71785817 -1.68200419
159 2.49490185 3.72955731 -4.37569628
160 -20.90558690 18.23946751 -14.65437269
161 -21.05697008 0.31884151 -26.86755815
162 -23.55640339 18.26174059 17.91307718
163 1.50138444 0.54667472 -0.77938967
164 -1.14076645 -3.82602350 -0.72018074
165 1.19797580 4.58114719 -2.95601886
166 10.88379957 1.50129655 3.50917216
167 4.93454733 17.73523175 4.75400253
168 6.97716586 -19.61713762 16.49407571
169 2.39215580 1.77880863 -0.65077731
170 4.32663753 3.70404752 -4.85863323
171 1.29322357 -4.45359477 4.45244800
172 -13.99284926 -8.52666621 -10.42326376
173 7.84076672 14.69045781 -16.88393952
174 -19.68896186 6.32204782 12.97686306
175 -5.59163583 5.06062648 1.34105157
176 1.55602367 -9.50322101 -2.93561236
177 2.55372606 1.43572005 -2.17336657
178 -17.08770841 -6.89746906 -11.42165905
179 7.39863530 -39.89304228 -6.91336329
180 -7.19104212 -3.29666376 28.85914092
181 4.71549201 8.15403131 0.59708313
182 0.42339399 3.26424240 4.68753751
183 10.07150051 1.37192651 2.94575661
184 6.56330897 -20.16042877 27.44654647
185 8.64361875 -14.21943594 -4.31223108
186 -19.13060427 -3.11482072 24.76295616
187 -3.79922010 7.39519533 -3.84454122
188 -0.86731297 -1.17423306 7.68211547
189 1.09180561 -3.83153272 -0.73017930
190 -2.41064329 7.56124329 -13.76497344
191 15.44957185 -7.07142434 -10.83242348
192 -9.35297748 8.18776787 1.95732849
193 0.11419500 -0.24785260 -0.92951183
194 -2.23513819 6.61372945 2.32467941
195 -4.75541705 -0.11176359 4.74624445
196 1.30227440 21.67856340 3.09903711
197 17.68756689 -9.41869353 -15.93780286
198 -8.37406265 21.79391913 -17.90391618
199 -0.83292606 1.35326428 -1.40391522
200 -5.02294367 -5.33071069 -2.61053369
201 -7.66307272 -1.42916119 -4.42250516
202 13.12834965 14.83834997 -22.62939826
203 -10.18425793 -15.77330650 -10.00543273
204 14.01459527 -19.70287412 -3.74833837
205 -4.59691180 -1.58594568 5.55359908
206 1.56281464 -8.43494490 1.40961191
207 3.43147261 7.45051022 -3.46894646
208 -29.19603951 -20.16115523 0.71010307
209 -8.78916433 -26.24193837 -21.63908977
210 -28.44039734 -1.35486478 -12.02256821
211 -0.38983971 -3.19176132 2.58321205
212 -1.55535076 0.36309835 -7.07123126
213 7.17661480 -1.82582560 -4.25411005
214 20.98775967 26.05663073 11.88183140
215 -3.50606125 25.23133150 -16.90800421
216 9.84475143 -8.17191290 -11.67749652
217 -3.68750904 2.64897608 2.47683293
218 0.68479753 -7.93560974 -1.57938574
219 1.24061130 1.52632184 -3.51676790
220 26.73767870 4.11750432 31.02734081
221 32.71591877 9.07623278 27.53933400
222 -5.86899369 11.44429541 30.68841120
223 -5.62989249 7.12670662 -1.84877934
224 0.05501239 5.82362297 4.55156056
225 2.62310888 7.74078506 3.79638789
226 -3.28415684 18.36354328 4.81169421
227 -5.37081767 11.03047808 15.82921879
228 -3.17572876 2.79405526 20.69214969
229 1.93687724 -5.52685589 -0.91925673
230 1.25145260 -5.11899199 1.28367778
231 -1.43407228 -2.72987234 -1.21450358
232 -17.58664000 30.83917412 38.10852259
233 -6.93018725 9.50871301 20.10729337
234 -23.03175670 -9.51199370 6.31440051
235 8.88717335 4.97755350 7.56317482
236 10.45278436 -0.54457007 5.88340204
237 1.43490983 0.60549159 3.14937568
238 13.67301449 -7.82288736 -27.01763792
239 1.39340100 4.45102107 14.61831522
240 -19.64907628 3.12989007 -19.39683089
241 5.01228699 3.05554893 3.86688004
242 6.76359080 -3.77832905 0.44424323
243 2.66133688 4.96115283 3.43211349
244 2.49308491 26.45800278 10.61894054
245 -22.67135994 2.32585825 26.55103363
246 7.73648505 4.20238860 3.90056626
247 0.93681370 -0.11447320 -0.92715503
248 4.71225293 7.52233052 1.63926756
249 -0.41803239 3.75358677 -5.84727729
250 17.75439234 20.30911707 -13.67370514
251 18.75374455 -1.29375128 11.36184550
252 6.23622070 9.40784389 -1.49529757
253 -3.03218358 -6.32340130 3.52371568
254 -2.89847378 1.80575173 2.69064296
255 -1.03174638 5.44727999 -4.03022664
256 -4.53063591 7.82078803 1.07460290
257 12.65542116 12.37603795 -11.42059053
258 -17.33290040 -2.71200806 44.67962236
259 -1.74505397 0.01034233 0.07406498
260 0.91607274 -2.44210521 -0.80592332
261 -9.09191267 1.82460428 -0.24965165
262 -34.67986940 21.06793781 28.25891982
263 11.71502982 15.68323706 3.71025728
264 24.51470789 -1.31565357 10.06357276
265 -6.46283362 -2.10835818 -2.21717552
266 -11.08491969 -1.95686455 2.21392510
267 3.87097387 -2.26563687 4.36735343
268 3.52338280 2.24749871 4.13942356
269 9.26915362 -5.37996877 -9.31321377
270 -21.95914724 31.89872586 30.42202334
271 -3.61960864 -0.50943663 -0.94466154
272 -3.37028860 0.90861677 0.53761280
273 0.58528160 0.03301560 -1.36935125
274 -5.37011826 10.94883690 -7.44395426
275 -3.94998334 -35.25206227 18.39610181
276 -35.86846733 11.70314688 27.19804554
277 -1.53158637 -7.24330902 5.64050097
278 -0.71160754 -1.10310256 -3.38022348
279 8.22874444 -9.21615637 -3.54337549
280 8.18555630 -17.48918487 23.33451346
281 13.27740184 1.61620080 -21.94694327
282 -15.69117968 4.53773603 0.34164970
283 6.65577151 -2.51128272 3.89037258
284 1.74610712 -1.83049428 -2.61759342
285 5.06594865 -0.67652363 5.31627282
286 -3.18459919 9.30540485 9.04069687
287 -7.09905673 7.54918908 21.14336188
288 -7.68946707 -21.38662052 20.90284254
289 -6.40176004 -3.06879398 -4.23730542
290 6.27340754 5.41123321 0.53847304
291 2.94643332 -1.60700374 -1.90344817
292 17.56396452 -38.03891728 -17.88920352
293 -11.22656275 3.80647786 12.36930776
294 4.07665586 16.00926835 35.68673760
295 2.84849951 -7.41526712 4.50477024
296 -2.12458006 1.92415231 9.35794277
297 1.79545228 -5.64540674 -5.93823988
298 -17.06183680 -12.58802802 -0.64651229
299 13.12690482 22.87922212 -1.63619155
300 6.96649688 17.84493225 -19.20763396
301 -0.71191987 3.64193059 -4.14378935
302 -0.48099848 -2.93862831 6.46610307
303 -5.40170676 5.88058940 1.25921125
304 0.37750900 6.82096581 -1.94841800
305 -21.03963077 6.19580899 5.66297730
306 12.91156079 0.29659130 -1.85545685
307 -5.23921949 4.69308430 -3.49553466
308 -2.42912509 1.07416627 -3.81656090
309 -4.27634589 -9.19976199 -2.72703412
310 4.89290873 7.55337649 -9.13278504
311 12.85954289 -16.87542438 17.83947843
312 -12.98437837 9.67445144 0.63586621
313 -0.56690476 -0.81975183 -5.05307452
314 1.55866769 -0.93823256 -5.57947570
315 1.45181627 -1.95134783 1.39192241
316 -17.73904872 -9.60568224 -7.53345670
317 -21.37746083 5.94531498 -20.33502592
318 -0.25387968 21.16628844 20.42835483
319 1.04299509 -2.63365752 0.72936599
320 -0.39010033 -1.40102002 5.86735934
321 7.13701819 0.31428295 -2.75746783
322 -5.61329368 19.18158986 -4.64905413
323 -14.20637790 1.74087893 13.52958641
324 27.71122482 5.28648401 -12.37080995
325 -1.15976095 -2.36612111 -0.93361970
326 2.22673850 0.08371695 4.17810024
327 1.00888667 5.01289373 -9.47413887
328 -14.02929584 -9.79935564 -8.04140691
329 20.77782051 17.42556264 -0.31614551
330 3.11320404 -6.53867539 -4.62838677
331 -0.09514518 1.70682807 -3.26968631
332 0.30037949 -0.67837022 -2.05886554
333 -2.10200097 -0.13080726 -1.95140696
334 -16.43937211 21.77563616 -16.74924664
335 -8.59227889 29.19823053 20.31025120
336 -7.43502718 -25.49816412 -23.03412970
337 2.12210073 -1.85706093 1.30581485
338 7.59331416 -1.29401994 -0.47400464
339 -6.64061044 5.88811870 -4.64773068
340 12.60584212 -11.15410460 -6.09269471
341 -11.21437347 19.60237300 -4.46825161
342 -18.09379317 2.99565689 -19.82084919
343 -4.25786271 -2.52273743 -4.49541560
344 -2.52936768 1.02873075 3.38877623
345 6.78189660 -4.59395087 0.54284208
346 4.94060452 16.38739447 -7.53527257
347 36.61828414 -1.68118853 -2.68548815
348 -13.89756137 7.09058540 17.06949929
349 0.43650240 -2.56361655 0.14420443
350 -8.79147853 6.70043849 4.95349462
351 1.77781530 -5.56980734 -12.88948749
352 4.74587034 16.70412148 5.45088972
353 6.35234023 27.00573496 25.76770767
354 8.52690884 -16.82019807 -4.44145732
355 0.60005481 -4.81191396 -0.13702806
356 6.19503554 -3.88559292 -0.73543274
357 0.60600520 1.90560429 1.35222190
358 -2.16076693 17.63064491 3.32320505
359 0.63250075 3.54218031 10.93613450
360 -1.91402944 -10.00975784 11.82590654
361 1.05085023 5.73495756 -11.02674154
362 0.89783202 3.63786551 0.59875209
363 3.13525954 -4.79337802 4.46783475
364 13.20072658 -21.98025221 -14.55788341
365 1.41210088 12.12807024 21.63000028
366 3.40110706 14.96307391 -8.37689227
367 5.07550177 2.77940128 4.20473673
368 2.02687204 3.59621532 6.85490961
369 -7.58292756 -2.80385493 9.65835388
370 -20.97282629 -10.61254269 12.70976439
371 13.78127010 5.90472144 0.25093731
372 -6.25982271 -9.53148327 -0.91485952
373 3.62131925 -4.68422708 2.52315706
374 -2.31482679 9.34006103 -9.86018806
375 5.73864593 1.38667565 -4.26783803
376 -9.05599476 -30.96676161 3.45538942
377 -9.80880989 7.05035784 -13.23110120
378 -9.41555424 -21.14307953 -10.32613566
379 -0.01463734 1.37791924 -2.54411026
380 -3.29617395 2.98936884 0.20577670
381 -3.64189939 -1.03655137 0.26060403
382 -9.38950620 -13.12182749 11.93724917
383 -7.47871796 8.50815681 -13.38649268
384 24.47451621 -6.50827458 20.54771951
385 3.96738048 -6.53122009 6.07364823
386 0.74216697 -3.06903660 -3.13757180
387 -7.23876685 -3.02120119 1.17550345
388 1.50165823 36.13952012 6.35010637
389 12.66493803 -10.00897103 4.04415951
390 -0.02471701 4.13951346 9.07798240
391 6.58977520 3.94461123 2.99839671
392 -0.59196070 1.64691333 -3.13097295
393 3.77815796 -1.36497894 8.10762648
394 13.32756967 -11.84321285 0.37596606
395 17.06733190 -22.65182727 -21.93929089
396 -9.31994850 3.75187439 2.96361005
397 -2.54938401 -3.01504975 -0.48314394
398 2.32968731 4.87991241 0.64952294
399 -4.12270296 2.12944204 -5.23725014
400 1.63973977 4.44400919 15.95460292
401 24.23886643 -18.18304293 -0.60576854
402 -13.64925190 -40.95910318 -3.98234370
403 -1.20858922 -2.49173637 -7.01896609
404 -2.46725104 -0.90383879 1.17713565
405 15.38640968 -4.68432768 2.20906407
406 -6.68438417 -5.81513125 -33.18258266
407 -23.36134195 -10.03170238 -19.11296347
408 8.81539690 19.29073933 24.67435911
409 -2.25874650 -2.10655264 -4.08105147
410 -2.49345285 -12.72778051 -1.52985912
411 1.74970992 -1.89799485 -0.42476931
412 5.95315399 -20.23460987 18.14128765
413 2.20181902 6.36941222 -2.67796749
414 -20.65336164 -4.04292477 41.85800202
415 -0.87588084 5.37036157 4.47073839
416 -3.40932265 -0.19194228 -1.87911401
417 -0.32997603 4.13963189 1.71590464
418 -3.35755391 -9.11832158 -19.24317325
419 5.34846017 -14.67964118 -4.06863981
420 8.08064742 9.97903184 12.46926049
421 -3.90803449 -1.09638814 0.36572479
422 -9.11590774 3.73918883 2.94937549
423 0.80402217 3.26050156 -3.70598408
424 10.27131512 -8.79891977 -15.69277261
425 6.41806189 -14.00387570 4.13697436
426 21.93818193 1.34687852 4.38333155
427 -4.79105740 -4.19359451 -0.26278665
428 -2.51881518 -5.42917215 3.76641190
429 4.40629678 3.09625138 -2.21115491
430 -7.93257257 1.95196562 3.19306040
431 -19.93341599 13.12857063 2.56880212
432 -3.07890809 -21.73019518 -26.89316368
433 3.33002607 -3.46376263 -3.99093105
434 1.08241387 4.00456343 5.82235714