#LAMMPS data file

434 atoms
4 atom types

0.000000 18.399669 xlo xhi
0.000000 18.399669 ylo yhi
0.000000 18.399669 zlo zhi

Atoms # atomic

1 1 13.628808 5.112053 5.933013
2 2 13.135997 5.702574 6.499453
3 3 17.462828 26.976053 18.010682
4 2 18.287971 27.625272 17.614005
5 2 16.699044 26.839594 17.304366
6 2 17.921003 26.032112 18.379447
7 3 16.780785 27.696200 19.171642
8 4 16.344132 28.361852 20.023004
9 3 15.281754 6.545297 21.266362
10 2 14.347013 6.057384 21.667921
11 2 15.190695 7.573389 21.629577
12 2 16.078865 5.916844 21.643885
13 3 15.155924 6.572831 19.835526
14 4 15.125222 6.618006 18.670987
15 3 2.835167 5.160225 28.152890
16 2 2.930071 4.251531 28.784023
17 2 3.280109 5.997771 28.654992
18 2 3.236443 4.892096 27.220735
19 3 1.426655 5.427541 27.981480
20 4 0.267528 5.449368 27.833660
21 3 -3.616291 17.932570 13.151558
22 2 -4.541622 18.224101 13.737565
23 2 -2.704691 17.970951 13.739560
24 2 -3.763788 16.880548 12.748397
25 3 -3.427423 18.860640 12.052629
26 4 -3.211897 19.548331 11.144537
27 3 11.629693 35.607168 27.503655
28 2 12.368571 36.440374 27.344680
29 2 10.717810 36.177626 27.867440
30 2 11.337042 35.037899 26.573793
31 3 12.099845 34.659227 28.488233
32 4 12.647192 33.931401 29.227468
33 3 1.420868 9.954241 6.839654
34 2 0.898340 9.101980 7.167829
35 2 0.945178 10.282774 5.911910
36 2 1.373382 10.816239 7.554027
37 3 2.800801 9.776171 6.605057
38 4 3.945092 9.710403 6.453348
39 3 11.052352 6.533263 22.387739
40 2 10.740256 5.994504 21.545044
41 2 11.798582 5.986801 22.926203
42 2 11.508843 7.515456 22.197361
43 3 9.969415 6.720255 23.426014
44 4 9.159248 6.999160 24.241901
45 3 -3.369749 13.193518 30.192562
46 2 -3.553839 12.132354 29.951378
47 2 -4.058467 13.746968 29.602393
48 2 -3.666878 13.310101 31.240318
49 3 -2.008316 13.654560 29.937550
50 4 -0.938580 14.103080 29.843210
51 3 -2.059355 12.638389 7.655365
52 2 -1.448019 13.530680 7.561364
53 2 -1.426588 11.878575 7.129949
54 2 -2.022169 12.375950 8.716576
55 3 -3.410715 12.599003 7.145341
56 4 -4.480981 12.710523 6.772897
57 3 -0.065019 6.319527 34.211296
58 2 0.335545 6.158089 35.245916
59 2 -1.072136 6.670707 34.345690
60 2 0.522272 6.965613 33.606016
61 3 -0.108542 5.035469 33.614342
62 4 -0.217260 3.997129 33.100067
63 3 1.282819 11.960971 14.973835
64 2 0.224777 12.280513 14.816695
65 2 1.928687 12.354058 14.104472
66 2 1.588283 12.455549 15.946176
67 3 1.485223 10.527801 14.894689
68 4 1.608004 9.391095 14.731437
69 3 10.655476 -3.106978 13.784881
70 2 11.231159 -3.184499 12.830868
71 2 11.284375 -3.136386 14.697799
72 2 10.054840 -2.177819 13.849138
73 3 9.714399 -4.178446 13.795909
74 4 8.977723 -5.111404 13.725208
75 3 9.176055 4.769667 14.418718
76 2 8.381393 4.321762 13.777404
77 2 8.924758 4.611495 15.556748
78 2 10.194826 4.415569 14.229332
79 3 9.193412 6.247657 14.259581
80 4 9.142863 7.423726 14.265018
81 3 4.109666 26.047702 31.206802
82 2 4.500655 25.124339 30.805015
83 2 3.600137 25.779193 32.182451
84 2 4.944363 26.675854 31.489970
85 3 3.199966 26.661176 30.249661
86 4 2.347139 27.060493 29.567137
87 3 4.826570 6.984985 23.249003
88 2 4.217653 7.811823 23.782693
89 2 5.798070 7.468999 23.022684
90 2 5.047744 6.280194 24.108091
91 3 4.130345 6.332870 22.146769
92 4 3.624641 5.778905 21.256386
93 3 -10.624121 15.473874 22.428638
94 2 -11.501341 14.951381 22.046458
95 2 -9.732917 15.262907 21.823497
96 2 -10.705816 16.581500 22.550321
97 3 -10.307261 14.993955 23.773250
98 4 -9.989924 14.644969 24.860043
99 3 -1.011935 15.538857 23.476364
100 2 -1.351252 15.909302 24.445681
101 2 -0.098413 16.151298 23.111037
102 2 -0.641052 14.473284 23.486804
103 3 -1.946568 15.635307 22.377508
104 4 -2.616206 15.936688 21.482541
105 3 -14.653750 25.980632 35.605422
106 2 -14.029502 26.941898 35.792167
107 2 -14.777973 25.578316 36.609730
108 2 -15.646978 26.221336 35.184322
109 3 -14.047769 25.019699 34.752251
110 4 -13.819965 24.197684 33.983485
111 3 5.946720 28.813776 21.367604
112 2 5.116712 28.748068 22.124448
113 2 6.558895 27.873240 21.289688
114 2 5.407376 29.183156 20.424265
115 3 6.813066 29.901844 21.791371
116 4 7.380607 30.871263 22.074501
117 3 1.405153 15.813339 30.943622
118 2 1.340667 14.802534 31.242238
119 2 1.766612 15.667853 29.929108
120 2 0.461087 16.284659 31.052179
121 3 2.464197 16.543050 31.622169
122 4 3.446600 17.014333 32.042478
123 3 7.227239 1.908028 19.098812
124 2 7.488031 0.867609 18.753044
125 2 6.927655 2.511165 18.210177
126 2 6.394968 1.993015 19.744344
127 3 8.430174 2.506620 19.711615
128 4 9.422677 3.021727 20.036860
129 3 20.984271 14.482933 5.574883
130 2 20.260846 14.455554 6.390513
131 2 20.562673 15.106037 4.780334
132 2 21.855096 15.056042 5.977093
133 3 21.259138 13.222478 5.009781
134 4 21.593975 12.322929 4.321208
135 3 10.876698 2.769583 24.103844
136 2 11.882194 3.179799 24.084532
137 2 10.193441 3.127105 23.292159
138 2 11.057050 1.635065 23.904650
139 3 10.257499 2.871445 25.404236
140 4 10.034905 2.853974 26.534800
141 3 15.148552 10.536234 14.574674
142 2 15.162558 11.287786 13.725606
143 2 15.905469 10.705940 15.360904
144 2 14.189617 10.510209 15.103596
145 3 15.434802 9.131743 14.123389
146 4 15.715266 8.078283 13.731695
147 3 -6.792153 9.057749 19.104521
148 2 -7.796779 9.365087 18.980554
149 2 -6.593863 9.293307 20.157117
150 2 -6.636622 7.999028 18.920704
151 3 -5.856495 9.827402 18.345129
152 4 -5.063319 10.283440 17.617114
153 3 6.511697 11.791353 30.349622
154 2 6.832760 10.659179 30.237334
155 2 7.361285 12.306627 30.844007
156 2 6.421027 12.197842 29.351489
157 3 5.294687 11.867964 31.125608
158 4 4.377036 12.072075 31.824502
159 3 7.735141 -12.016627 18.713257
160 2 7.932715 -13.114983 18.636537
161 2 8.573701 -11.417490 18.380084
162 2 6.801493 -11.688985 18.214496
163 3 7.599271 -11.875838 20.104938
164 4 7.409403 -11.867728 21.247731
165 3 -1.811079 3.658528 36.759389
166 2 -2.194511 2.936688 37.518442
167 2 -1.536589 3.014239 35.904373
168 2 -2.671186 4.380496 36.461716
169 3 -0.677041 4.435177 37.145086
170 4 0.199301 5.189969 37.341071
171 3 -4.119885 19.992915 40.296519
172 2 -5.072756 20.288159 40.803617
173 2 -3.462765 20.876465 40.513173
174 2 -3.902002 18.962107 40.710913
175 3 -4.521838 19.944158 38.891351
176 4 -4.726306 20.176414 37.752544
177 3 7.817812 19.989841 32.342129
178 2 6.987981 20.624958 32.354763
179 2 7.536047 19.011886 31.874319
180 2 8.475136 20.412912 31.566414
181 3 8.433617 19.898380 33.640737
182 4 9.027751 19.817191 34.657276
183 3 10.501451 12.003943 23.398758
184 2 10.401743 13.124995 23.483390
185 2 10.021371 11.746455 22.439444
186 2 11.529717 11.667516 23.344631
187 3 9.825525 11.394884 24.522332
188 4 9.410711 10.649621 25.319129
189 3 1.308023 9.706125 21.209249
190 2 1.453950 8.609265 21.461279
191 2 0.251255 10.143451 21.067653
192 2 1.795476 10.109466 22.010288
193 3 2.242197 10.028805 20.122082
194 4 2.955120 10.532124 19.346526
195 3 10.860532 -5.515252 28.506959
196 2 11.794339 -5.308632 29.124998
197 2 10.149673 -4.598758 28.530522
198 2 11.108279 -5.679303 27.442641
199 3 10.163414 -6.719038 29.008794
200 4 9.739518 -7.762750 29.371752
201 3 6.862591 16.064989 29.897765
202 2 5.922106 16.599670 29.935682
203 2 6.879723 15.359265 30.757581
204 2 6.904228 15.387706 29.064632
205 3 8.054734 16.847496 29.713740
206 4 8.983084 17.507544 29.565896
207 3 21.388933 21.537854 31.595805
208 2 22.341593 21.649453 32.230780
209 2 20.623531 20.894728 32.134129
210 2 20.889749 22.550729 31.528546
211 3 21.646216 20.971028 30.306631
212 4 21.710320 20.408564 29.289753
213 3 17.002821 7.394002 6.364159
214 2 17.048708 6.817933 7.366840
215 2 16.208991 6.799388 5.814860
216 2 16.768354 8.421416 6.732470
217 3 18.303059 7.328431 5.754783
218 4 19.352623 7.129469 5.324124
219 3 4.030376 18.992005 23.321501
220 2 3.155931 18.758257 22.732473
221 2 4.751295 19.671749 22.854395
222 2 3.656713 19.489585 24.271671
223 3 4.647305 17.696641 23.632225
224 4 5.011289 16.696826 24.071413
225 3 10.448205 -7.269818 15.402761
226 2 10.315755 -7.956460 14.516044
227 2 9.629891 -6.619625 15.509245
228 2 10.571662 -7.905211 16.302080
229 3 11.646004 -6.542806 15.251928
230 4 12.545471 -5.808664 15.211846
231 3 6.389922 22.696582 27.894692
232 2 5.716314 21.873891 27.658964
233 2 7.433122 22.492143 27.553218
234 2 5.861905 23.561474 27.432137
235 3 6.542713 22.655492 29.344669
236 4 6.513582 22.606081 30.534879
237 3 -2.729454 17.414500 36.583906
238 2 -2.037738 16.612664 36.343293
239 2 -2.774028 18.303201 35.725379
240 2 -3.744333 16.991255 36.926632
241 3 -2.184815 18.214636 37.672796
242 4 -1.611589 18.972403 38.386300
243 3 5.783034 14.379844 15.099609
244 2 6.239713 13.393983 15.107735
245 2 5.558912 14.714536 14.088868
246 2 4.949948 14.290506 15.817926
247 3 6.869472 15.293114 15.453582
248 4 7.808589 15.998490 15.617965
249 3 3.033655 16.908864 8.874514
250 2 3.876019 16.327916 8.557001
251 2 2.444318 16.227045 9.461557
252 2 3.475671 17.760840 9.438849
253 3 2.227144 17.457075 7.805822
254 4 1.463117 17.815827 7.004878
255 3 17.589458 26.502500 11.174409
256 2 18.002395 26.828113 12.217715
257 2 18.407649 26.235411 10.523733
258 2 16.967149 25.596122 11.185230
259 3 16.899769 27.617268 10.533381
260 4 16.481214 28.571704 10.013082
261 3 17.323888 15.621176 33.717955
262 2 17.744168 15.845210 32.665915
263 2 16.500732 16.282337 33.906444
264 2 16.971297 14.588628 33.827280
265 3 18.404631 15.826132 34.655985
266 4 19.311736 15.865807 35.431477
267 3 7.258946 21.955135 42.178537
268 2 7.644119 22.002060 43.218582
269 2 6.194534 22.224326 42.112707
270 2 7.784979 22.789107 41.689753
271 3 7.584426 20.685364 41.608953
272 4 7.859595 19.619955 41.173065
273 3 -4.228573 9.426182 25.716769
274 2 -4.046094 8.378565 26.140578
275 2 -4.826698 10.023402 26.370398
276 2 -3.196982 9.883266 25.713683
277 3 -4.784904 9.409070 24.378614
278 4 -5.069768 9.404241 23.249457
279 3 16.823537 16.904591 27.755945
280 2 17.651378 16.966698 27.098398
281 2 17.201128 16.289725 28.579316
282 2 16.577433 17.888897 28.139172
283 3 15.746157 16.386692 26.966039
284 4 14.870293 15.773060 26.500043
285 3 6.601992 9.616290 26.859785
286 2 7.480269 9.881950 26.257749
287 2 6.390385 10.461990 27.578447
288 2 5.709739 9.378945 26.240088
289 3 6.881965 8.451206 27.672519
290 4 6.963622 7.512452 28.309895
291 3 4.983521 14.736383 38.600322
292 2 5.916515 15.276294 38.505073
293 2 5.110351 13.875009 39.317699
294 2 4.189952 15.412400 38.936791
295 3 4.560353 14.294432 37.306432
296 4 4.221178 13.919882 36.268756
297 3 10.567532 18.254308 18.783043
298 2 10.646873 19.226538 19.298374
299 2 10.604430 18.381593 17.657998
300 2 11.405141 17.570154 19.022863
301 3 9.368632 17.585156 19.117188
302 4 8.350497 17.005659 19.304823
303 3 21.619349 22.567345 36.639138
304 2 22.446302 22.761071 35.880103
305 2 21.356642 23.430445 37.290232
306 2 20.705353 22.297999 36.087921
307 3 21.982354 21.527899 37.568293
308 4 22.182406 20.738271 38.381438
309 3 1.176919 2.929711 22.340070
310 2 1.248619 1.976716 22.698706
311 2 1.848601 3.567711 22.883591
312 2 1.352878 2.982452 21.314299
313 3 -0.184106 3.472667 22.546770
314 4 -1.192817 3.932901 22.838452
315 3 12.586547 8.461380 13.072915
316 2 13.008776 7.522003 12.668581
317 2 11.512961 8.366745 13.407013
318 2 13.167297 8.622014 14.024687
319 3 12.808692 9.464555 12.099664
320 4 12.974494 10.121596 11.134564
321 3 8.416516 -0.059039 26.418577
322 2 8.182531 -1.084411 26.815929
323 2 9.056556 0.457835 27.175728
324 2 8.941913 -0.105807 25.484780
325 3 7.263182 0.728253 26.200154
326 4 6.256725 1.246651 25.854676
327 3 18.537936 13.241855 19.124019
328 2 18.003810 13.094492 20.061836
329 2 18.810967 14.298397 18.990654
330 2 19.407668 12.615397 19.311785
331 3 17.720518 12.760636 18.027810
332 4 17.201882 12.568602 16.999512
333 3 -4.293057 13.622836 18.239207
334 2 -3.988008 13.670553 19.272915
335 2 -3.380441 13.738921 17.566472
336 2 -4.714393 12.652525 18.016520
337 3 -5.245347 14.717213 17.994413
338 4 -5.848116 15.694415 17.821405
339 3 -9.695076 13.042292 18.810726
340 2 -9.501313 13.799349 18.034422
341 2 -10.079060 13.576998 19.681387
342 2 -10.443352 12.389881 18.464815
343 3 -8.431884 12.499293 19.168183
344 4 -7.299631 12.179638 19.382392
345 3 1.373051 18.148125 19.280874
346 2 2.134330 17.871324 18.456771
347 2 1.630699 19.032368 19.926110
348 2 0.392742 18.352850 18.740229
349 3 1.203127 17.003914 20.120589
350 4 1.182354 16.117794 20.899294
351 3 14.882615 3.848423 12.962577
352 2 15.191692 3.016675 13.593388
353 2 15.699644 4.631209 12.795580
354 2 14.592571 3.472877 11.917353
355 3 13.713750 4.513224 13.474666
356 4 12.779171 5.178789 13.837092
357 3 0.840305 20.055552 16.380785
358 2 1.004851 20.151583 17.444421
359 2 0.968586 21.056655 15.915470
360 2 1.557395 19.267076 16.003403
361 3 -0.502517 19.607690 16.101725
362 4 -1.606950 19.327126 15.894590
363 3 14.757411 11.951956 21.751929
364 2 14.737501 11.516831 20.720935
365 2 14.815227 13.042738 21.711414
366 2 13.805692 11.662847 22.205296
367 3 15.926429 11.446024 22.462936
368 4 16.902175 10.967702 22.912648
369 3 -12.960323 31.981175 25.978165
370 2 -13.408868 32.494242 25.113970
371 2 -13.174263 30.957494 25.632196
372 2 -11.987760 32.376459 26.041644
373 3 -13.652996 32.207802 27.234508
374 4 -14.071669 32.163150 28.315292
375 3 -0.190313 2.599457 25.817663
376 2 -0.502370 1.632223 26.405362
377 2 -0.754975 2.826738 24.878621
378 2 -0.560347 3.440086 26.444053
379 3 1.290969 2.673090 25.730552
380 4 2.465249 2.585194 25.744044
381 3 20.133292 11.996251 28.950010
382 2 21.060206 12.264546 29.587728
383 2 20.316961 11.086564 28.295155
384 2 19.172064 11.812585 29.460505
385 3 19.831546 13.112992 28.090477
386 4 19.681241 13.981730 27.320390
387 3 6.842081 27.762744 34.034153
388 2 7.370369 26.922100 33.474751
389 2 6.954715 28.690300 33.517596
390 2 5.792547 27.602242 34.123153
391 3 7.404173 27.901770 35.373965
392 4 7.784740 28.095725 36.455326
393 3 -0.296621 1.944574 29.069408
394 2 -0.126626 2.993576 29.426884
395 2 -1.357389 1.851279 28.717117
396 2 0.391683 1.816114 28.279599
397 3 -0.192769 0.930346 30.039513
398 4 -0.156533 0.048989 30.814401
399 3 -12.551704 17.914003 17.315368
400 2 -11.485850 18.155202 17.295488
401 2 -12.732922 17.123422 16.563158
402 2 -12.804980 17.548200 18.335665
403 3 -13.265767 19.057779 16.809859
404 4 -13.871487 19.990658 16.442483
405 3 -6.722116 21.959829 35.991620
406 2 -7.540221 21.237276 36.151371
407 2 -5.718097 21.401911 35.959352
408 2 -6.744244 22.495200 35.014450
409 3 -6.617350 22.947134 37.014241
410 4 -6.375827 23.793025 37.747379
411 3 29.460508 2.959426 11.155953
412 2 30.092614 2.875901 10.239866
413 2 29.513764 4.042581 11.605070
414 2 28.378086 2.808286 10.870886
415 3 29.958434 1.925323 12.108513
416 4 30.356144 1.073021 12.771497
417 3 -5.708851 15.339525 22.846793
418 2 -4.648942 15.217904 22.351334
419 2 -6.491437 15.018345 22.058564
420 2 -5.717329 14.597378 23.622383
421 3 -5.840674 16.682513 23.303425
422 4 -6.028746 17.836666 23.415162
423 3 -3.145809 4.693743 27.299933
424 2 -2.139812 4.902529 27.532070
425 2 -3.547672 5.033170 26.319316
426 2 -3.318661 3.548697 27.364461
427 3 -3.935845 5.443536 28.344711
428 4 -4.586249 5.944948 29.168731
429 3 10.852070 8.327471 27.337616
430 2 9.815207 7.971964 27.030527
431 2 11.023214 9.305581 27.063211
432 2 11.059276 8.172690 28.336511
433 3 11.625404 7.312037 26.550307
434 4 12.253074 6.668975 25.745160