#LAMMPS data file

434 atoms
4 atom types

0.000000 16.193488 xlo xhi
0.000000 16.193488 ylo yhi
0.000000 16.193488 zlo zhi

Atoms # atomic

1 1 23.846103 14.953902 17.949293
2 2 24.604399 15.133668 18.599277
3 3 30.126360 28.099289 31.330971
4 2 30.745346 27.404501 30.783581
5 2 30.756250 28.493332 32.133130
6 2 29.897339 28.958148 30.656151
7 3 28.916478 27.502138 31.842435
8 4 27.978509 26.814327 32.107870
9 3 34.066281 12.236149 30.683938
10 2 34.327459 12.600517 31.723515
11 2 33.246705 12.950858 30.361227
12 2 35.019318 12.396742 30.119473
13 3 33.653031 10.864597 30.635944
14 4 33.237503 9.775870 30.580675
15 3 12.869472 20.387571 35.342419
16 2 13.855006 20.523843 35.696984
17 2 12.512233 21.436739 35.167748
18 2 12.699586 19.781169 34.398283
19 3 11.966652 19.836983 36.316745
20 4 11.471512 19.223125 37.177894
21 3 12.319300 28.820545 22.079902
22 2 13.059339 28.208726 22.617792
23 2 12.576093 29.383337 21.157002
24 2 11.459827 28.217308 21.751426
25 3 11.799638 29.648354 23.149390
26 4 11.440994 30.421354 23.961798
27 3 26.957636 42.730518 35.636817
28 2 27.800845 42.279952 36.245593
29 2 26.482518 43.484873 36.224221
30 2 27.424035 43.122082 34.708225
31 3 25.971345 41.698229 35.420815
32 4 25.057524 40.972389 35.246674
33 3 15.340921 23.082801 19.775609
34 2 15.724184 22.044634 20.012015
35 2 15.009386 23.034991 18.752067
36 2 14.515692 23.308679 20.411807
37 3 16.282655 24.117868 20.039401
38 4 17.018603 24.988219 20.331454
39 3 24.952479 16.080049 31.663485
40 2 25.500380 15.954316 32.650542
41 2 24.686607 15.103246 31.369030
42 2 24.110593 16.742309 31.983928
43 3 25.979637 16.575206 30.770639
44 4 26.699676 17.077595 30.026814
45 3 10.595341 22.708174 37.232037
46 2 11.288234 22.314254 37.958441
47 2 10.502399 23.823514 37.575890
48 2 10.948818 22.542641 36.230301
49 3 9.356480 22.121349 37.455903
50 4 8.336876 21.570625 37.624993
51 3 13.458584 24.632416 22.637495
52 2 12.494173 24.023679 22.737107
53 2 14.331080 23.916348 22.724790
54 2 13.510362 25.085822 21.646562
55 3 13.545326 25.724442 23.618457
56 4 13.425355 26.560336 24.449037
57 3 14.104622 10.216103 34.455251
58 2 14.704764 10.855693 33.798372
59 2 13.030638 10.227320 34.282253
60 2 14.389810 9.177652 34.423320
61 3 14.304462 10.631626 35.823115
62 4 14.496361 11.033387 36.897421
63 3 17.879913 13.348661 27.268318
64 2 17.267450 13.539907 28.148075
65 2 17.813716 14.233778 26.646824
66 2 18.919624 13.383194 27.621051
67 3 17.457369 12.121203 26.644818
68 4 17.152171 11.159509 26.068227
69 3 24.513614 7.867231 23.571632
70 2 24.971627 8.321519 22.654009
71 2 25.179597 7.010398 23.870868
72 2 24.595261 8.580669 24.448302
73 3 23.159308 7.452162 23.279226
74 4 22.084835 7.049524 23.147824
75 3 16.908793 10.328445 23.157113
76 2 17.949081 10.486423 22.744969
77 2 16.739601 11.023712 23.962160
78 2 16.137994 10.445281 22.408844
79 3 16.897563 9.064018 23.803192
80 4 16.745603 7.992351 24.230884
81 3 15.416339 29.594025 40.726569
82 2 14.669181 28.774415 40.873655
83 2 15.582754 30.163526 41.624170
84 2 16.329039 29.054351 40.430632
85 3 15.075134 30.472981 39.641375
86 4 14.717499 31.199784 38.851080
87 3 18.232980 9.698458 33.762787
88 2 19.006690 9.791808 32.986628
89 2 18.801529 9.590700 34.805550
90 2 17.695280 10.686383 33.787907
91 3 17.191682 8.729708 33.570008
92 4 16.456939 7.882919 33.311464
93 3 6.013168 24.558759 26.408395
94 2 6.098736 23.507972 26.379647
95 2 5.906353 24.855860 25.350947
96 2 5.268068 25.024573 27.004524
97 3 7.272070 25.001187 26.988427
98 4 8.291039 25.155716 27.528354
99 3 15.826348 18.420619 26.781741
100 2 15.456416 18.774257 27.748083
101 2 15.274304 18.854729 25.948945
102 2 16.841292 18.824042 26.522684
103 3 15.847676 16.983233 26.750239
104 4 15.804731 15.847881 26.912472
105 3 -3.648910 28.967014 42.812676
106 2 -3.601234 28.116932 42.141550
107 2 -3.673480 29.920353 42.287766
108 2 -4.554172 28.846684 43.428853
109 3 -2.503963 29.036334 43.694640
110 4 -1.604992 29.137580 44.378325
111 3 21.030856 33.694724 35.028267
112 2 20.764027 34.071175 36.049512
113 2 22.029538 34.127936 34.780016
114 2 21.024409 32.641040 35.260904
115 3 19.962140 34.133895 34.215594
116 4 19.037874 34.487460 33.616266
117 3 14.284894 22.633213 42.528781
118 2 13.534138 22.395703 41.665067
119 2 14.433218 23.761970 42.574896
120 2 13.821363 22.227665 43.443589
121 3 15.605532 22.017812 42.359137
122 4 16.621082 21.506735 42.471353
123 3 22.859522 15.314554 28.858232
124 2 22.889134 16.142530 29.662904
125 2 23.133232 15.617079 27.815888
126 2 23.632552 14.667556 29.283180
127 3 21.562195 14.731454 28.851128
128 4 20.566634 14.144623 28.838453
129 3 31.860357 19.448017 16.941385
130 2 31.871196 19.404160 18.051713
131 2 31.684715 20.498551 16.594867
132 2 32.832758 19.218972 16.669011
133 3 30.852788 18.615168 16.380753
134 4 29.988943 18.011567 15.889139
135 3 24.747463 14.450584 39.881369
136 2 25.443923 14.043752 40.599039
137 2 23.716070 14.396108 40.371677
138 2 24.985330 15.440879 39.595074
139 3 24.820205 13.665797 38.750583
140 4 24.881129 12.937329 37.873717
141 3 26.712092 20.113395 27.490060
142 2 27.031625 20.942231 26.940361
143 2 26.277443 20.366749 28.491321
144 2 25.879369 19.568497 26.971357
145 3 27.864187 19.253261 27.631543
146 4 28.708483 18.437545 27.883233
147 3 5.905511 23.313691 35.999851
148 2 5.748418 23.331072 37.067897
149 2 4.953325 23.793063 35.602907
150 2 6.743818 23.860505 35.572505
151 3 5.847659 21.925056 35.568509
152 4 5.808793 20.856461 35.090091
153 3 17.871349 17.367403 37.159483
154 2 17.001858 16.731701 37.260190
155 2 18.130754 17.783281 38.125098
156 2 18.697543 16.935399 36.555443
157 3 17.323183 18.631736 36.570890
158 4 16.875984 19.643006 36.116804
159 3 15.307390 -1.939327 35.558363
160 2 16.291729 -1.537686 35.970804
161 2 14.755574 -2.643713 36.215135
162 2 14.669095 -1.096198 35.255991
163 3 15.637798 -2.699341 34.401926
164 4 15.914978 -3.391309 33.530071
165 3 10.061795 10.594964 41.114475
166 2 9.067883 10.489794 41.479050
167 2 10.408761 11.694290 41.292166
168 2 10.836822 10.052176 41.735775
169 3 10.296701 10.232883 39.748336
170 4 10.430706 9.933646 38.625062
171 3 7.294506 26.462700 37.891208
172 2 8.313829 26.134297 37.895562
173 2 7.264014 27.276988 37.216535
174 2 6.651953 25.583434 37.703820
175 3 7.154536 26.856063 39.282429
176 4 7.004567 27.142617 40.403846
177 3 18.438660 24.793225 43.744090
178 2 17.914451 24.471009 42.845352
179 2 18.996739 25.699546 43.448959
180 2 17.750951 25.154748 44.496440
181 3 19.278801 23.758272 44.331682
182 4 19.607107 22.701561 44.694581
183 3 22.013965 17.288226 41.098758
184 2 23.072966 17.391136 40.759898
185 2 21.724920 17.942769 41.918173
186 2 21.429225 17.342771 40.175832
187 3 22.006053 15.968208 41.580637
188 4 22.315435 14.981811 42.156894
189 3 18.564006 16.085303 29.918569
190 2 18.749481 15.968654 28.823799
191 2 18.141030 15.165587 30.319012
192 2 19.543312 16.270121 30.423080
193 3 17.543136 17.139745 30.065285
194 4 16.833831 18.063516 29.941891
195 3 18.652391 5.329449 34.646266
196 2 19.236393 4.450924 34.387740
197 2 18.908668 6.125451 34.034525
198 2 17.604007 5.015792 34.566058
199 3 18.920245 5.572727 36.054324
200 4 18.983121 5.807748 37.174467
201 3 20.299031 19.125100 30.400507
202 2 20.937802 19.932425 30.113208
203 2 19.551644 19.676682 31.032899
204 2 19.827769 18.570752 29.560491
205 3 21.054408 18.217788 31.291627
206 4 21.757947 17.552737 31.917799
207 3 28.542870 31.143332 33.242348
208 2 27.577568 31.517671 33.546521
209 2 28.530250 30.962926 32.182782
210 2 29.237735 31.903886 33.444446
211 3 28.637224 29.933946 34.079113
212 4 28.557544 29.123675 34.924606
213 3 27.856673 16.080054 20.862787
214 2 27.517099 16.808102 21.601663
215 2 28.435382 16.639957 20.103673
216 2 28.570727 15.324867 21.180486
217 3 26.769424 15.642691 20.033986
218 4 25.829987 15.322820 19.423046
219 3 22.800727 18.728423 27.717318
220 2 21.691153 18.802543 27.779787
221 2 23.260968 17.718172 27.438947
222 2 23.085902 19.494176 26.992685
223 3 23.530571 19.020566 28.968240
224 4 24.026785 19.146319 29.996016
225 3 27.196495 3.576802 31.607855
226 2 27.696540 3.341311 30.630140
227 2 27.699251 4.328655 32.213057
228 2 26.154281 3.912873 31.388008
229 3 27.028057 2.526860 32.581764
230 4 26.888279 1.795885 33.466880
231 3 20.388167 28.997779 40.571807
232 2 20.963435 29.853046 40.879151
233 2 20.573578 28.152995 41.181739
234 2 19.366265 29.400177 40.566416
235 3 20.583943 28.525392 39.218611
236 4 20.852365 28.119939 38.144081
237 3 14.951218 25.839152 43.992063
238 2 15.350467 24.949369 44.478838
239 2 15.486189 26.793016 44.295222
240 2 14.954126 25.709646 42.917937
241 3 13.569771 25.894434 44.423741
242 4 12.456911 25.923742 44.755921
243 3 19.507860 22.416940 24.536163
244 2 19.738326 23.505893 24.532773
245 2 18.906392 22.220431 25.408924
246 2 19.117928 22.043895 23.560219
247 3 20.747574 21.749201 24.854652
248 4 21.554216 21.007003 25.249810
249 3 16.567031 21.033348 22.951012
250 2 17.050865 21.811039 23.519398
251 2 17.014040 20.928276 21.929138
252 2 16.762587 20.026375 23.302239
253 3 15.173921 21.320670 22.641928
254 4 14.110339 21.690712 22.264201
255 3 29.296341 33.040821 25.022557
256 2 29.559636 31.985679 24.804240
257 2 29.191082 33.294867 26.054386
258 2 30.203463 33.591617 24.678970
259 3 28.059411 33.467998 24.381239
260 4 27.066712 33.909009 23.987230
261 3 24.170416 17.826911 35.703223
262 2 23.587416 16.963079 35.166592
263 2 25.148156 17.917480 35.225095
264 2 23.513737 18.739992 35.559192
265 3 24.280263 17.531967 37.105920
266 4 24.188305 17.512647 38.266914
267 3 21.504970 27.139097 46.790037
268 2 20.702183 27.238022 47.563019
269 2 21.941583 28.157747 46.805884
270 2 22.205736 26.410211 47.115103
271 3 20.870257 26.956083 45.473895
272 4 20.521923 26.897588 44.351977
273 3 10.652493 15.497169 43.521446
274 2 11.682436 15.778574 43.229411
275 2 10.415700 14.607464 42.992073
276 2 10.571109 15.464381 44.587450
277 3 9.691368 16.404264 43.021113
278 4 8.802267 16.983358 42.471159
279 3 23.896650 23.524347 32.823811
280 2 22.901402 23.309311 33.144416
281 2 24.586672 23.090958 33.586394
282 2 24.139741 22.991067 31.879656
283 3 24.125474 24.887657 32.636447
284 4 24.316986 26.030363 32.474409
285 3 18.056014 12.025897 36.293822
286 2 17.412165 12.329105 35.451228
287 2 17.721345 11.055239 36.729191
288 2 19.028792 11.873765 35.884230
289 3 17.944705 13.010472 37.373334
290 4 17.695755 13.668774 38.312902
291 3 18.246384 15.795251 40.532638
292 2 19.130033 15.864925 39.835772
293 2 17.656255 14.898762 40.521285
294 2 18.696583 15.879490 41.604579
295 3 17.321153 16.856194 40.341644
296 4 16.563530 17.728294 40.137849
297 3 22.516671 21.943460 28.758157
298 2 21.779274 21.691888 27.986675
299 2 22.597294 21.117172 29.482461
300 2 23.561008 21.980329 28.282265
301 3 22.489890 23.267395 29.502183
302 4 22.271763 24.311641 29.933579
303 3 29.763659 31.836970 46.222769
304 2 29.928701 32.521483 45.355493
305 2 29.214830 32.422425 47.013130
306 2 29.118310 31.003675 45.882618
307 3 31.039713 31.309607 46.628263
308 4 31.938797 30.823259 47.172240
309 3 19.993654 7.891881 31.639405
310 2 20.124124 8.590240 32.407229
311 2 18.970106 8.024811 31.389638
312 2 20.699707 8.153906 30.816246
313 3 20.351901 6.578672 31.978006
314 4 20.810373 5.497584 32.104663
315 3 24.512527 19.866146 24.434645
316 2 25.058960 19.003833 24.863412
317 2 24.875292 20.107928 23.422169
318 2 23.443046 19.514578 24.420612
319 3 24.598771 21.026418 25.267633
320 4 24.675142 22.034725 25.891659
321 3 20.003197 8.985986 37.871757
322 2 20.251675 7.942731 37.738874
323 2 20.701371 9.592914 37.293799
324 2 18.969886 9.039026 37.410216
325 3 19.957789 9.328715 39.254683
326 4 19.806324 9.688425 40.341027
327 3 35.147478 19.742187 27.382122
328 2 34.259237 19.859585 28.040285
329 2 34.811900 20.269641 26.485455
330 2 35.932117 20.275030 27.853823
331 3 35.512462 18.394957 27.155730
332 4 35.809546 17.259569 27.059698
333 3 7.639876 20.124935 32.840932
334 2 6.971450 20.948514 32.525073
335 2 7.016879 19.361120 33.331986
336 2 8.033034 19.806402 31.880400
337 3 8.739217 20.549096 33.669991
338 4 9.596507 21.125654 34.221759
339 3 10.008511 24.306104 30.061334
340 2 9.520722 24.595639 29.065461
341 2 11.079556 24.673528 29.950780
342 2 9.439752 24.777334 30.889373
343 3 9.838251 22.844804 29.983875
344 4 9.398578 21.771560 29.865527
345 3 14.285349 20.170332 29.546637
346 2 13.800508 19.197873 29.477725
347 2 14.745072 20.174025 30.511874
348 2 15.080763 20.289926 28.809586
349 3 13.410292 21.256461 29.428899
350 4 12.530172 22.027779 29.429755
351 3 25.609596 12.429744 33.169152
352 2 25.622641 13.294251 33.814358
353 2 26.583458 12.227608 32.690920
354 2 25.493610 11.450810 33.682203
355 3 24.467564 12.537341 32.268471
356 4 23.546051 12.875961 31.574670
357 3 11.048688 23.794696 26.805054
358 2 11.667662 24.637378 27.136330
359 2 11.387050 22.916757 27.419243
360 2 10.002815 23.903725 27.018687
361 3 11.242178 23.540490 25.457277
362 4 11.351574 23.405962 24.297718
363 3 27.363949 23.723578 32.859936
364 2 27.508539 24.720956 32.472176
365 2 26.362727 23.538897 33.243464
366 2 27.567719 22.870543 32.190941
367 3 28.285057 23.674231 34.003226
368 4 28.846833 23.617367 35.023686
369 3 5.295027 35.919315 38.382536
370 2 5.362640 37.047187 38.410538
371 2 5.062045 35.625127 37.300134
372 2 6.224402 35.432423 38.663548
373 3 4.120943 35.540140 39.165369
374 4 3.163686 35.163454 39.792892
375 3 14.240702 8.032343 31.309617
376 2 15.228425 8.282843 30.994673
377 2 13.893891 8.829688 31.953277
378 2 13.524511 8.023171 30.468839
379 3 14.253909 6.722893 31.915164
380 4 14.216811 5.707268 32.488834
381 3 30.662010 18.134022 37.936328
382 2 29.751804 17.791423 38.531247
383 2 30.524223 19.232769 37.845524
384 2 31.504886 17.984516 38.599973
385 3 30.737856 17.563026 36.620668
386 4 30.860733 17.058998 35.573889
387 3 21.030325 30.865062 48.803575
388 2 21.675559 31.423693 49.557907
389 2 20.263436 31.519031 48.284085
390 2 21.708180 30.431462 48.072855
391 3 20.462099 29.547406 49.291548
392 4 20.011093 28.489251 49.518289
393 3 17.460073 5.199414 46.960455
394 2 17.161290 4.180994 46.716284
395 2 17.222209 5.380976 48.024248
396 2 18.493337 5.405440 46.801837
397 3 16.750650 6.167092 46.120084
398 4 16.108985 6.951694 45.557367
399 3 6.515302 28.219232 26.824041
400 2 6.370401 28.044418 27.905383
401 2 6.358726 27.266863 26.307755
402 2 5.848179 29.010884 26.568482
403 3 7.835127 28.770334 26.593965
404 4 8.817438 29.385306 26.464280
405 3 9.577211 27.833512 45.645503
406 2 10.360064 27.105469 45.506516
407 2 9.197214 27.917875 44.608209
408 2 8.862291 27.486649 46.414567
409 3 10.222490 29.016093 46.035347
410 4 10.777574 29.940480 46.497196
411 3 38.457571 14.389279 20.504478
412 2 38.682298 14.860065 19.514837
413 2 37.941409 13.431200 20.290223
414 2 39.455961 14.083468 20.868990
415 3 37.603715 15.061676 21.435015
416 4 36.993662 15.753671 22.163276
417 3 11.718632 20.512179 23.800333
418 2 10.879187 20.446071 24.485725
419 2 11.381470 19.936324 22.911844
420 2 11.823846 21.557196 23.493255
421 3 12.857596 20.064400 24.519748
422 4 13.893597 19.780279 24.986423
423 3 17.140999 16.247148 33.444686
424 2 16.769043 15.446955 32.776888
425 2 17.640158 16.936955 32.843973
426 2 16.226429 16.613840 33.927509
427 3 18.024183 15.549561 34.410394
428 4 18.736612 14.925774 35.111493
429 3 22.682641 11.295003 34.768792
430 2 23.723926 11.044195 34.974897
431 2 22.196084 11.871134 35.535136
432 2 22.604477 11.932089 33.883722
433 3 21.863438 10.144200 34.499907
434 4 21.188456 9.234021 34.248169