#LAMMPS data file

434 atoms
4 atom types

0.000000 17.439506 xlo xhi
0.000000 15.194166 ylo yhi
0.000000 15.074574 zlo zhi

Atoms # atomic

1 1 12.033958 2.000021 -8.646752
2 2 12.550747 2.169175 -7.860920
3 2 8.841562 -5.260644 -9.282744
4 2 9.831958 -2.753706 -8.721658
5 2 7.295260 -0.380026 -6.663021
6 2 9.402473 -3.743015 -5.392234
7 2 6.559953 -1.518566 -5.528457
8 2 11.204132 -3.772683 -5.317264
9 2 7.098298 -5.213696 -8.801162
10 2 10.481719 -3.789145 -10.155489
11 4 7.339061 -3.567314 -11.319906
12 3 7.560438 -4.410846 -10.601314
13 3 7.819891 -5.441439 -9.601078
14 2 7.678554 -6.491693 -10.001684
15 4 10.450312 -1.019932 -11.406812
16 3 10.497566 -1.735282 -10.481008
17 3 10.580701 -2.839406 -9.516903
18 2 11.557831 -2.907319 -8.894911
19 4 7.842169 -3.075933 -7.761578
20 3 7.848135 -2.256052 -6.946408
21 3 7.440656 -1.213555 -5.974177
22 2 8.268658 -0.940197 -5.333808
23 4 10.479813 -5.409005 -7.839532
24 3 10.463129 -4.600993 -7.008586
25 3 10.328208 -3.621971 -5.980435
26 2 10.274280 -2.574335 -6.430609
27 2 12.582232 -5.305281 -8.883540
28 2 17.463118 -2.691469 -8.857253
29 2 13.764883 -0.180049 -6.267473
30 2 16.221151 -2.548651 -6.347206
31 2 12.471707 -1.092382 -5.324296
32 2 15.755072 -3.781482 -5.127247
33 2 13.587999 -6.226337 -9.938048
34 2 15.771389 -2.564659 -8.739094
35 4 13.487568 -3.368593 -11.172498
36 3 13.540146 -4.243073 -10.390194
37 3 13.507129 -5.253868 -9.423187
38 2 14.286464 -5.193938 -8.639999
39 4 16.229629 -0.917093 -11.265130
40 3 16.488502 -1.727231 -10.447159
41 3 16.547321 -2.735488 -9.458528
42 2 16.412601 -3.725756 -9.869125
43 4 13.146774 -2.777417 -7.868313
44 3 13.226118 -2.135017 -6.851382
45 3 13.463742 -1.135421 -5.805563
46 2 14.276510 -1.396585 -5.043810
47 4 16.273035 -5.498776 -7.698892
48 3 16.353062 -4.649044 -6.903621
49 3 16.394636 -3.567081 -5.947028
50 2 17.421629 -3.686506 -5.406336
51 2 20.140986 -5.354951 -9.168927
52 2 22.558694 -2.727138 -8.578169
53 2 19.051184 -1.370368 -4.804932
54 2 22.043458 -2.880115 -6.460005
55 2 20.525408 -1.293876 -5.479954
56 2 21.129846 -3.797925 -5.109762
57 2 18.365097 -5.621072 -9.309131
58 2 20.819304 -3.113005 -8.830271
59 4 19.004470 -3.292040 -11.189952
60 3 19.095281 -4.342491 -10.658398
61 3 19.321895 -5.519794 -9.851759
62 2 19.521928 -6.365991 -10.528796
63 4 22.015816 -1.241885 -11.087865
64 3 21.957052 -2.166940 -10.390588
65 3 21.804326 -3.125336 -9.340125
66 2 22.139218 -4.114345 -9.680663
67 4 19.191538 -3.098922 -7.468635
68 3 19.256135 -2.198434 -6.679956
69 3 19.467711 -1.182414 -5.737252
70 2 19.153744 -0.182763 -6.179197
71 4 21.993154 -5.714609 -7.527421
72 3 21.872679 -4.919799 -6.696246
73 3 21.969559 -3.776800 -5.813279
74 2 22.912511 -3.828104 -5.330331
75 2 7.950879 -0.296325 -8.862226
76 2 9.262230 1.748211 -10.806153
77 2 6.801115 3.984202 -5.514824
78 2 9.676622 1.796857 -5.284799
79 2 8.571219 4.297722 -5.514517
80 2 11.494047 1.393852 -5.129035
81 2 6.441746 -0.734087 -9.393501
82 2 10.873079 1.494033 -10.115686
83 4 7.615086 1.207028 -11.714103
84 3 7.419017 0.427085 -10.831897
85 3 7.430356 -0.579257 -9.798349
86 2 7.667391 -1.535329 -10.337972
87 4 10.677371 4.310681 -11.449880
88 3 10.427637 3.398654 -10.810421
89 3 10.072614 2.187602 -10.195777
90 2 9.658193 2.494169 -9.172773
91 4 7.974844 1.925762 -7.571215
92 3 7.798041 2.909609 -6.980814
93 3 7.691058 4.111686 -6.149507
94 2 7.606748 5.076837 -6.692696
95 4 10.116505 -0.514064 -7.341088
96 3 10.448492 0.418057 -6.707701
97 3 10.632371 1.574493 -5.877716
98 2 10.827495 2.522123 -6.380278
99 2 14.019593 0.145993 -8.708848
100 2 16.351724 1.248149 -10.194473
101 2 12.789561 4.564981 -4.922896
102 2 17.130033 1.060072 -5.224897
103 2 14.489213 4.884651 -4.867729
104 2 16.728695 2.346151 -6.454025
105 2 12.353614 -0.280589 -9.355003
106 2 17.680232 1.925502 -9.259449
107 4 13.449635 1.812198 -11.360197
108 3 13.411212 0.946863 -10.571178
109 3 13.394773 -0.073047 -9.652303
110 2 13.770125 -0.952837 -10.065462
111 4 16.310617 4.189828 -11.248285
112 3 16.528931 3.284078 -10.519255
113 3 16.676145 2.183289 -9.631467
114 2 15.920160 2.417845 -8.811770
115 4 13.962229 2.720991 -7.141460
116 3 13.801496 3.630250 -6.418467
117 3 13.602362 4.771412 -5.539719
118 2 13.503507 5.666099 -6.176739
119 4 16.360660 -0.638785 -7.679432
120 3 16.432462 0.344779 -7.007561
121 3 16.454250 1.349390 -6.047710
122 2 15.422997 1.416811 -5.710730
123 2 19.371352 -1.339219 -9.633474
124 2 21.470326 2.015732 -8.917367
125 2 18.696327 4.886546 -5.916002
126 2 23.243290 1.112678 -4.910642
127 2 18.870245 3.583548 -4.657016
128 2 22.634885 2.207156 -6.201443
129 2 20.004210 -0.097713 -8.472413
130 2 22.287510 1.017923 -10.260865
131 4 19.487751 1.303316 -11.239850
132 3 19.458380 0.575500 -10.331584
133 3 19.252121 -0.306557 -9.253056
134 2 18.214826 -0.208302 -8.816388
135 4 22.260836 3.810304 -11.426940
136 3 22.317066 2.994524 -10.632157
137 3 22.331426 1.939336 -9.667733
138 2 23.147202 1.897136 -8.980152
139 4 19.137274 2.123015 -7.327374
140 3 19.327331 2.963775 -6.531877
141 3 19.320609 4.052340 -5.538216
142 2 20.383955 4.322686 -5.316168
143 4 22.075064 -0.635011 -7.350531
144 3 22.251013 0.235144 -6.592701
145 3 22.401530 1.294542 -5.636579
146 2 21.365767 1.425144 -5.136882
147 2 7.748411 3.447203 -10.031855
148 2 11.297556 7.226834 -9.477237
149 2 6.770441 8.399726 -5.093872
150 2 10.008889 6.548652 -5.091700
151 2 8.572389 8.944653 -5.426192
152 2 11.741922 6.856813 -5.509718
153 2 8.312992 4.542933 -8.853595
154 2 9.630315 7.649852 -9.178274
155 4 7.521629 6.349825 -11.292166
156 3 7.444730 5.541608 -10.461122
157 3 7.517953 4.391884 -9.509215
158 2 6.539106 4.307064 -8.961421
159 4 10.568458 9.729397 -11.406941
160 3 10.560015 8.683690 -10.820223
161 3 10.354919 7.508184 -10.013347
162 2 10.071905 6.583369 -10.552381
163 4 7.678210 6.917528 -7.776324
164 3 7.557092 7.768023 -6.995425
165 3 7.538186 8.800094 -5.856521
166 2 7.141534 9.728360 -6.313662
167 4 10.433971 4.723007 -7.558725
168 3 10.677672 5.569606 -6.795392
169 3 10.728498 6.744372 -5.925805
170 2 10.448312 7.623403 -6.532538
171 2 13.631894 3.749099 -10.104050
172 2 16.466236 6.324757 -10.003306
173 2 12.935537 10.025380 -6.593214
174 2 17.148617 6.574784 -4.963370
175 2 12.676572 8.955233 -5.260808
176 2 16.560608 7.644512 -6.331459
177 2 14.664639 4.829979 -9.073884
178 2 17.009028 7.649439 -9.039807
179 4 13.416244 6.801790 -11.122899
180 3 13.561832 5.839157 -10.467361
181 3 13.655899 4.736289 -9.604159
182 2 12.854616 4.924162 -8.810629
183 4 16.152891 9.243567 -11.397484
184 3 16.040737 8.380808 -10.609212
185 3 16.137571 7.306053 -9.641068
186 2 15.190807 7.221919 -9.156252
187 4 13.124566 7.263228 -7.811392
188 3 13.263455 8.108906 -7.033764
189 3 13.386954 9.185861 -6.059846
190 2 14.378739 9.264114 -5.693166
191 4 16.547946 4.570242 -7.300942
192 3 16.501334 5.613291 -6.742303
193 3 16.363160 6.677251 -5.855361
194 2 15.400177 6.628872 -5.365718
195 2 19.544689 3.621188 -10.290515
196 2 23.111241 7.461248 -8.777724
197 2 19.935765 9.087643 -5.448910
198 2 21.388210 6.438724 -5.376294
199 2 18.876753 9.863714 -6.522146
200 2 23.071430 5.925077 -5.307066
201 2 20.361655 4.591119 -9.135748
202 2 21.387483 7.239876 -8.961826
203 4 19.255999 6.577646 -11.341793
204 3 19.329134 5.699444 -10.570308
205 3 19.455635 4.554317 -9.714234
206 2 18.585265 4.575809 -9.073546
207 4 22.373139 9.103413 -11.319501
208 3 22.320700 8.197332 -10.615243
209 3 22.342947 7.215853 -9.531963
210 2 22.463960 6.234598 -9.917425
211 4 19.358401 6.985657 -7.709506
212 3 19.201700 7.860455 -6.950260
213 3 19.026638 8.919604 -6.019129
214 2 18.173507 8.789661 -5.409606
215 4 22.060628 4.260046 -7.614633
216 3 22.113682 5.171860 -6.859338
217 3 22.289454 6.262168 -5.980064
218 2 22.508231 7.182640 -6.490850
219 2 7.633500 -6.602416 -2.785223
220 2 9.638342 -2.874910 -1.708641
221 2 7.734396 -0.437792 0.942880
222 2 10.815461 -2.568989 1.235365
223 2 6.550195 -1.314155 1.987210
224 2 9.872446 -3.506748 2.551521
225 2 8.559652 -5.607770 -1.527103
226 2 10.633659 -3.737943 -2.867886
227 4 7.754714 -3.695752 -4.039429
228 3 7.785495 -4.547953 -3.234203
229 3 7.713285 -5.624440 -2.279046
230 2 6.819667 -5.424508 -1.640963
231 4 10.772927 -0.926026 -3.926701
232 3 10.673992 -1.791148 -3.110775
233 3 10.637074 -2.869239 -2.181911
234 2 11.408866 -2.756788 -1.435150
235 4 7.618653 -3.278035 -0.291945
236 3 7.570774 -2.436988 0.525852
237 3 7.559664 -1.372953 1.498255
238 2 8.404611 -1.513200 2.229522
239 4 10.479770 -5.423642 -0.025418
240 3 10.528882 -4.617601 0.814916
241 3 10.730231 -3.580688 1.796698
242 2 11.610768 -3.764349 2.352981
243 2 12.236369 -4.986943 -1.386095
244 2 17.082687 -2.956822 -1.379409
245 2 13.322161 0.065728 1.558638
246 2 15.315944 -3.718731 2.375172
247 2 12.568182 -1.288907 2.424493
248 2 17.079232 -3.240960 2.227657
249 2 13.284018 -6.176077 -2.262777
250 2 15.405819 -2.776698 -1.491945
251 4 13.263086 -3.416000 -3.879403
252 3 13.165442 -4.295152 -3.115883
253 3 13.139776 -5.158595 -1.962889
254 2 13.915237 -4.757098 -1.283419
255 4 16.760215 -1.243926 -3.998964
256 3 16.529237 -1.983945 -3.173487
257 3 16.340828 -2.984683 -2.123685
258 2 16.261858 -3.989972 -2.404249
259 4 13.160496 -2.583177 -0.105943
260 3 13.325851 -1.771299 0.735915
261 3 13.455794 -0.961211 1.874547
262 2 14.418026 -1.060467 2.424877
263 4 16.515942 -5.566169 0.184267
264 3 16.496930 -4.575243 0.832165
265 3 16.175494 -3.506423 1.628954
266 2 15.856607 -2.581819 1.138793
267 2 18.108829 -5.370342 -1.443772
268 2 22.574609 -4.039977 -2.936377
269 2 18.960800 -0.273501 1.323614
270 2 23.058341 -3.418943 2.244084
271 2 18.472050 -1.469072 2.604831
272 2 22.033655 -2.524823 1.100509
273 2 18.697546 -6.494234 -2.753256
274 2 23.422882 -2.875711 -1.842382
275 4 19.202282 -3.683638 -3.784299
276 3 19.200980 -4.573123 -3.015053
277 3 18.930476 -5.635295 -2.125414
278 2 19.846783 -5.835526 -1.561859
279 4 22.152712 -0.877422 -3.662433
280 3 22.253694 -1.936151 -3.189284
281 3 22.492994 -3.052179 -2.294367
282 2 21.651592 -3.152344 -1.555876
283 4 19.080044 -3.184149 0.171084
284 3 19.209459 -2.247871 0.858841
285 3 19.270757 -1.213046 1.803332
286 2 20.323207 -1.084084 2.279994
287 4 22.038859 -5.491370 0.009333
288 3 22.123029 -4.608888 0.749955
289 3 22.106171 -3.466237 1.675761
290 2 21.221739 -3.574851 2.244011
291 2 8.729909 -0.485390 -1.548183
292 2 11.403190 1.437005 -2.695547
293 2 7.459495 4.907457 1.156271
294 2 10.297807 2.655593 0.903163
295 2 6.813707 3.928136 2.440345
296 2 9.640514 1.692906 2.193730
297 2 6.789585 -0.380522 -1.680344
298 2 11.029350 2.552072 -1.358505
299 4 7.634402 1.603510 -3.806016
300 3 7.730724 0.701694 -3.066739
301 3 7.770864 -0.468763 -2.222228
302 2 7.763787 -1.361936 -2.857511
303 4 10.406779 4.296678 -3.880307
304 3 10.634146 3.354042 -3.260163
305 3 10.665086 2.177334 -2.316280
306 2 9.671727 1.751083 -2.299055
307 4 7.438293 2.199898 -0.252140
308 3 7.557868 2.849195 0.695923
309 3 7.571927 3.949583 1.640478
310 2 8.585232 3.973963 2.117993
311 4 10.464491 -0.393204 -0.133988
312 3 10.460596 0.495320 0.629273
313 3 10.403848 1.688635 1.440039
314 2 11.324763 1.771199 1.991291
315 2 12.641345 -0.503622 -1.668777
316 2 16.753709 2.351443 -1.345710
317 2 12.504534 3.910535 2.137426
318 2 16.336546 2.542593 1.265857
319 2 14.319854 3.887433 2.282231
320 2 15.478152 1.203425 2.137538
321 2 14.023628 -1.252817 -2.608574
322 2 15.202332 2.064542 -1.865078
323 4 13.473185 1.682768 -3.840614
324 3 13.489452 0.791802 -3.119636
325 3 13.630183 -0.293575 -2.122683
326 2 14.251399 0.043329 -1.239878
327 4 16.277789 4.057101 -4.043277
328 3 16.297241 3.168905 -3.274999
329 3 16.219955 2.133479 -2.300420
330 2 16.540982 1.122373 -2.648662
331 4 13.614240 2.011037 -0.135732
332 3 13.632270 2.892425 0.625710
333 3 13.528573 3.988344 1.564955
334 2 13.578675 4.915158 1.006747
335 4 16.420409 -0.477959 -0.339054
336 3 16.319610 0.361933 0.480253
337 3 16.368762 1.398250 1.598575
338 2 17.171644 1.206954 2.314184
339 2 19.941624 -1.365274 -2.488435
340 2 23.098213 2.335566 -1.439973
341 2 18.137323 3.861712 2.465531
342 2 22.532113 1.194584 2.573904
343 2 20.008747 3.779411 2.134565
344 2 21.985467 2.422329 1.316164
345 2 20.338276 -0.145821 -1.326832
346 2 21.412085 2.447767 -1.548239
347 4 18.837146 1.356323 -3.626520
348 3 19.303656 0.557950 -2.932372
349 3 19.582815 -0.465525 -1.940991
350 2 18.643741 -0.667185 -1.448366
351 4 22.183258 4.043669 -4.003166
352 3 22.344165 3.254539 -3.135249
353 3 22.274325 2.236981 -2.122398
354 2 22.278420 1.231019 -2.626013
355 4 18.871417 2.102988 -0.122421
356 3 19.007272 2.961981 0.627635
357 3 19.009382 3.909059 1.717417
358 2 18.975410 4.902274 1.207909
359 4 22.297947 -0.304042 -0.264909
360 3 22.149739 0.471203 0.611189
361 3 21.935777 1.399222 1.684870
362 2 20.856001 1.171772 1.992589
363 2 8.823331 4.798104 -1.435531
364 2 10.682292 6.491166 -2.609258
365 2 8.535851 9.347152 2.238199
366 2 11.034914 6.676257 2.279799
367 2 7.334107 10.249210 1.342467
368 2 10.044310 7.441101 1.014720
369 2 7.017739 4.717848 -1.124593
370 2 11.075569 7.560563 -1.113611
371 4 7.482839 6.556503 -3.549324
372 3 7.623984 5.713918 -2.778269
373 3 7.806558 4.627776 -1.837426
374 2 7.789139 3.648124 -2.348873
375 4 10.374698 9.506092 -3.523524
376 3 10.328031 8.563874 -2.834723
377 3 10.360877 7.370025 -1.995801
378 2 9.388614 7.203318 -1.544021
379 4 7.238530 7.213269 0.318934
380 3 7.334693 8.173167 0.994024
381 3 7.534645 9.320477 1.855590
382 2 6.743688 9.172862 2.627001
383 4 10.439438 4.686465 -0.101158
384 3 10.380127 5.426525 0.769472
385 3 10.167076 6.567899 1.676377
386 2 9.323151 6.408430 2.344065
387 2 14.217779 4.891229 -1.295266
388 2 16.896606 7.705368 -1.203721
389 2 14.518658 9.576272 2.308580
390 2 17.114263 6.213436 2.447750
391 2 12.958029 10.230935 1.416422
392 2 16.525283 7.638244 1.395238
393 2 12.391824 4.966055 -1.081367
394 2 15.172861 7.402130 -1.489606
395 4 13.167932 6.930810 -3.538920
396 3 13.192067 6.095518 -2.724459
397 3 13.222906 4.984197 -1.840041
398 2 13.141688 4.116401 -2.499936
399 4 16.077536 9.243705 -3.793267
400 3 16.104145 8.399186 -2.971500
401 3 16.171068 7.439308 -1.963141
402 2 16.197773 6.448851 -2.455996
403 4 13.433702 7.348482 0.344869
404 3 13.576471 8.239428 1.055501
405 3 13.458943 9.372767 1.935307
406 2 12.949156 8.991834 2.763992
407 4 16.142396 4.778207 0.078474
408 3 16.125501 5.652951 0.840627
409 3 16.304710 6.601652 1.861567
410 2 15.389593 6.735367 2.478374
411 2 19.935565 4.418072 -1.717609
412 2 21.135022 7.373665 -1.443954
413 2 18.895658 9.817565 0.923299
414 2 21.952258 7.353742 1.316003
415 2 18.236235 8.609253 2.204190
416 2 21.077894 6.150316 2.309783
417 2 18.162081 4.662888 -1.367163
418 2 21.621695 6.083187 -2.541048
419 4 18.807216 6.533926 -3.893855
420 3 18.884673 5.689882 -3.097099
421 3 18.914790 4.518629 -2.166747
422 2 18.796910 3.585279 -2.730770
423 4 22.237057 8.995031 -3.854474
424 3 22.095928 8.122595 -3.108370
425 3 21.958997 7.079953 -2.127980
426 2 22.841870 6.893833 -1.626057
427 4 19.450858 7.084793 -0.225613
428 3 19.347104 7.823397 0.687623
429 3 19.155605 8.932854 1.604906
430 2 20.033556 9.072837 2.199725
431 4 22.032944 4.605451 -0.167473
432 3 22.112364 5.352671 0.713322
433 3 22.007366 6.366756 1.737689
434 2 22.881344 6.468581 2.351371